*Heading
 CSDM_cph pressure hull linear buckling
** Job name: C4 Model name: CPH_Model
** Generated by: Abaqus/CAE 2023
*Preprint, echo=NO, model=NO, history=NO, contact=NO
**
** PARTS
**
*Part, name=CompositeHull
*Node
      1,   128.167099,           0.,  -14.7058039
      2,   125.655327,           0.,  -29.2198944
      3,   121.505455,           0.,  -43.3530617
      4,   115.771576,           0.,   -56.921051
      5,   108.528435,           0.,   -69.746994
      6,   99.8704605,           0.,  -81.6636734
      7,   89.9105225,           0.,  -92.5157394
      8,   78.7784653,           0.,  -102.161728
      9,      66.6194,           0.,  -110.475876
     10,   53.5918617,           0.,  -117.349808
     11,   39.8656654,           0.,  -122.693901
     12,   25.6197586,           0.,  -126.438492
     13,   11.0398607,           0.,   -128.53476
     14,  -3.68395901,           0.,  -128.955383
     15,  -18.3597527,           0.,  -127.694885
     16,  -32.7961998,           0.,  -124.769684
     17,  -46.8050957,           0.,  -120.217918
     18,  -60.2038193,           0.,  -114.098923
     19,   -72.817688,           0.,  -106.492477
     20,  -84.4822769,           0.,  -97.4977417
     21,  -95.0455017,           0.,  -87.2319717
     22,  -104.369667,           0.,  -75.8290024
     23,  -112.333206,           0.,  -63.4374809
     24,  -118.832321,           0.,   -50.218956
     25,  -123.782272,           0.,  -36.3457527
     26,   -127.11853,           0.,  -21.9987278
     27,  -128.797607,           0.,  -7.36491346
     28,  -128.797607,           0.,   7.36491346
     29,   -127.11853,           0.,   21.9987278
     30,  -123.782272,           0.,   36.3457527
     31,  -118.832321,           0.,    50.218956
     32,  -112.333206,           0.,   63.4374809
     33,  -104.369667,           0.,   75.8290024
     34,  -95.0455017,           0.,   87.2319717
     35,  -84.4822769,           0.,   97.4977417
     36,   -72.817688,           0.,   106.492477
     37,  -60.2038193,           0.,   114.098923
     38,  -46.8050957,           0.,   120.217918
     39,  -32.7961998,           0.,   124.769684
     40,  -18.3597527,           0.,   127.694885
     41,  -3.68395901,           0.,   128.955383
     42,   11.0398607,           0.,    128.53476
     43,   25.6197586,           0.,   126.438492
     44,   39.8656654,           0.,   122.693901
     45,   53.5918617,           0.,   117.349808
     46,      66.6194,           0.,   110.475876
     47,   78.7784653,           0.,   102.161728
     48,   89.9105225,           0.,   92.5157394
     49,   99.8704605,           0.,   81.6636734
     50,   108.528435,           0.,    69.746994
     51,   115.771576,           0.,    56.921051
     52,   121.505455,           0.,   43.3530617
     53,   125.655327,           0.,   29.2198944
     54,   128.167099,           0.,   14.7058039
     55,   129.007996,           0.,           0.
     56,   128.167099,   14.7962666,  -14.7058029
     57,   125.655327,   14.7962666,  -29.2198944
     58,   121.505455,   14.7962666,  -43.3530617
     59,   115.771576,   14.7962666,   -56.921051
     60,   108.528435,   14.7962666,   -69.746994
     61,   99.8704605,   14.7962666,  -81.6636734
     62,   89.9105225,   14.7962666,  -92.5157394
     63,   78.7784653,   14.7962666,  -102.161728
     64,      66.6194,   14.7962666,  -110.475876
     65,   53.5918617,   14.7962666,  -117.349808
     66,   39.8656654,   14.7962666,  -122.693901
     67,   25.6197586,   14.7962666,  -126.438492
     68,   11.0398607,   14.7962666,   -128.53476
     69,  -3.68395925,   14.7962666,  -128.955383
     70,  -18.3597527,   14.7962666,  -127.694885
     71,  -32.7961998,   14.7962666,  -124.769684
     72,  -46.8050957,   14.7962666,  -120.217918
     73,  -60.2038193,   14.7962666,  -114.098923
     74,   -72.817688,   14.7962666,  -106.492477
     75,  -84.4822769,   14.7962666,  -97.4977417
     76,  -95.0455017,   14.7962666,  -87.2319717
     77,  -104.369667,   14.7962666,  -75.8290024
     78,  -112.333206,   14.7962666,  -63.4374809
     79,  -118.832321,   14.7962666,   -50.218956
     80,  -123.782272,   14.7962666,  -36.3457527
     81,   -127.11853,   14.7962666,  -21.9987278
     82,  -128.797607,   14.7962666,  -7.36491299
     83,  -128.797607,   14.7962666,   7.36491299
     84,   -127.11853,   14.7962666,   21.9987278
     85,  -123.782272,   14.7962666,   36.3457527
     86,  -118.832321,   14.7962666,    50.218956
     87,  -112.333206,   14.7962666,   63.4374809
     88,  -104.369667,   14.7962666,   75.8290024
     89,  -95.0455017,   14.7962666,   87.2319717
     90,  -84.4822769,   14.7962666,   97.4977417
     91,   -72.817688,   14.7962666,   106.492477
     92,  -60.2038193,   14.7962666,   114.098923
     93,  -46.8050957,   14.7962666,   120.217918
     94,  -32.7961998,   14.7962666,   124.769684
     95,  -18.3597527,   14.7962666,   127.694885
     96,  -3.68395925,   14.7962666,   128.955383
     97,   11.0398607,   14.7962666,    128.53476
     98,   25.6197586,   14.7962666,   126.438492
     99,   39.8656654,   14.7962666,   122.693901
    100,   53.5918617,   14.7962666,   117.349808
    101,      66.6194,   14.7962666,   110.475876
    102,   78.7784653,   14.7962666,   102.161728
    103,   89.9105225,   14.7962666,   92.5157394
    104,   99.8704605,   14.7962666,   81.6636734
    105,   108.528435,   14.7962666,    69.746994
    106,   115.771576,   14.7962666,    56.921051
    107,   121.505455,   14.7962666,   43.3530617
    108,   125.655327,   14.7962666,   29.2198944
    109,   128.167099,   14.7962666,   14.7058029
    110,   129.007996,   14.7962666,           0.
    111,   128.167099,   29.5925331,  -14.7058029
    112,   125.655327,   29.5925331,  -29.2198944
    113,   121.505455,   29.5925331,  -43.3530617
    114,   115.771576,   29.5925331,   -56.921051
    115,   108.528435,   29.5925331,   -69.746994
    116,   99.8704605,   29.5925331,  -81.6636734
    117,   89.9105225,   29.5925331,  -92.5157394
    118,   78.7784653,   29.5925331,  -102.161728
    119,      66.6194,   29.5925331,  -110.475876
    120,   53.5918617,   29.5925331,  -117.349808
    121,   39.8656654,   29.5925331,  -122.693901
    122,   25.6197586,   29.5925331,  -126.438492
    123,   11.0398607,   29.5925331,   -128.53476
    124,  -3.68395925,   29.5925331,  -128.955383
    125,  -18.3597527,   29.5925331,  -127.694885
    126,  -32.7961998,   29.5925331,  -124.769684
    127,  -46.8050957,   29.5925331,  -120.217918
    128,  -60.2038193,   29.5925331,  -114.098923
    129,   -72.817688,   29.5925331,  -106.492477
    130,  -84.4822769,   29.5925331,  -97.4977417
    131,  -95.0455017,   29.5925331,  -87.2319717
    132,  -104.369667,   29.5925331,  -75.8290024
    133,  -112.333206,   29.5925331,  -63.4374809
    134,  -118.832321,   29.5925331,   -50.218956
    135,  -123.782272,   29.5925331,  -36.3457527
    136,   -127.11853,   29.5925331,  -21.9987278
    137,  -128.797607,   29.5925331,  -7.36491299
    138,  -128.797607,   29.5925331,   7.36491299
    139,   -127.11853,   29.5925331,   21.9987278
    140,  -123.782272,   29.5925331,   36.3457527
    141,  -118.832321,   29.5925331,    50.218956
    142,  -112.333206,   29.5925331,   63.4374809
    143,  -104.369667,   29.5925331,   75.8290024
    144,  -95.0455017,   29.5925331,   87.2319717
    145,  -84.4822769,   29.5925331,   97.4977417
    146,   -72.817688,   29.5925331,   106.492477
    147,  -60.2038193,   29.5925331,   114.098923
    148,  -46.8050957,   29.5925331,   120.217918
    149,  -32.7961998,   29.5925331,   124.769684
    150,  -18.3597527,   29.5925331,   127.694885
    151,  -3.68395925,   29.5925331,   128.955383
    152,   11.0398607,   29.5925331,    128.53476
    153,   25.6197586,   29.5925331,   126.438492
    154,   39.8656654,   29.5925331,   122.693901
    155,   53.5918617,   29.5925331,   117.349808
    156,      66.6194,   29.5925331,   110.475876
    157,   78.7784653,   29.5925331,   102.161728
    158,   89.9105225,   29.5925331,   92.5157394
    159,   99.8704605,   29.5925331,   81.6636734
    160,   108.528435,   29.5925331,    69.746994
    161,   115.771576,   29.5925331,    56.921051
    162,   121.505455,   29.5925331,   43.3530617
    163,   125.655327,   29.5925331,   29.2198944
    164,   128.167099,   29.5925331,   14.7058029
    165,   129.007996,   29.5925331,           0.
    166,   128.167099,   44.3888016,  -14.7058029
    167,   125.655327,   44.3888016,  -29.2198944
    168,   121.505455,   44.3888016,  -43.3530617
    169,   115.771576,   44.3888016,   -56.921051
    170,   108.528435,   44.3888016,   -69.746994
    171,   99.8704605,   44.3888016,  -81.6636734
    172,   89.9105225,   44.3888016,  -92.5157394
    173,   78.7784653,   44.3888016,  -102.161728
    174,      66.6194,   44.3888016,  -110.475876
    175,   53.5918617,   44.3888016,  -117.349808
    176,   39.8656654,   44.3888016,  -122.693901
    177,   25.6197586,   44.3888016,  -126.438492
    178,   11.0398607,   44.3888016,   -128.53476
    179,  -3.68395925,   44.3888016,  -128.955383
    180,  -18.3597527,   44.3888016,  -127.694885
    181,  -32.7961998,   44.3888016,  -124.769684
    182,  -46.8050957,   44.3888016,  -120.217918
    183,  -60.2038193,   44.3888016,  -114.098923
    184,   -72.817688,   44.3888016,  -106.492477
    185,  -84.4822769,   44.3888016,  -97.4977417
    186,  -95.0455017,   44.3888016,  -87.2319717
    187,  -104.369667,   44.3888016,  -75.8290024
    188,  -112.333206,   44.3888016,  -63.4374809
    189,  -118.832321,   44.3888016,   -50.218956
    190,  -123.782272,   44.3888016,  -36.3457527
    191,   -127.11853,   44.3888016,  -21.9987278
    192,  -128.797607,   44.3888016,  -7.36491299
    193,  -128.797607,   44.3888016,   7.36491299
    194,   -127.11853,   44.3888016,   21.9987278
    195,  -123.782272,   44.3888016,   36.3457527
    196,  -118.832321,   44.3888016,    50.218956
    197,  -112.333206,   44.3888016,   63.4374809
    198,  -104.369667,   44.3888016,   75.8290024
    199,  -95.0455017,   44.3888016,   87.2319717
    200,  -84.4822769,   44.3888016,   97.4977417
    201,   -72.817688,   44.3888016,   106.492477
    202,  -60.2038193,   44.3888016,   114.098923
    203,  -46.8050957,   44.3888016,   120.217918
    204,  -32.7961998,   44.3888016,   124.769684
    205,  -18.3597527,   44.3888016,   127.694885
    206,  -3.68395925,   44.3888016,   128.955383
    207,   11.0398607,   44.3888016,    128.53476
    208,   25.6197586,   44.3888016,   126.438492
    209,   39.8656654,   44.3888016,   122.693901
    210,   53.5918617,   44.3888016,   117.349808
    211,      66.6194,   44.3888016,   110.475876
    212,   78.7784653,   44.3888016,   102.161728
    213,   89.9105225,   44.3888016,   92.5157394
    214,   99.8704605,   44.3888016,   81.6636734
    215,   108.528435,   44.3888016,    69.746994
    216,   115.771576,   44.3888016,    56.921051
    217,   121.505455,   44.3888016,   43.3530617
    218,   125.655327,   44.3888016,   29.2198944
    219,   128.167099,   44.3888016,   14.7058029
    220,   129.007996,   44.3888016,           0.
    221,   128.167099,   59.1850662,  -14.7058029
    222,   125.655327,   59.1850662,  -29.2198944
    223,   121.505455,   59.1850662,  -43.3530617
    224,   115.771576,   59.1850662,   -56.921051
    225,   108.528435,   59.1850662,   -69.746994
    226,   99.8704605,   59.1850662,  -81.6636734
    227,   89.9105225,   59.1850662,  -92.5157394
    228,   78.7784653,   59.1850662,  -102.161728
    229,      66.6194,   59.1850662,  -110.475876
    230,   53.5918617,   59.1850662,  -117.349808
    231,   39.8656654,   59.1850662,  -122.693901
    232,   25.6197586,   59.1850662,  -126.438492
    233,   11.0398607,   59.1850662,   -128.53476
    234,  -3.68395925,   59.1850662,  -128.955383
    235,  -18.3597527,   59.1850662,  -127.694885
    236,  -32.7961998,   59.1850662,  -124.769684
    237,  -46.8050957,   59.1850662,  -120.217918
    238,  -60.2038193,   59.1850662,  -114.098923
    239,   -72.817688,   59.1850662,  -106.492477
    240,  -84.4822769,   59.1850662,  -97.4977417
    241,  -95.0455017,   59.1850662,  -87.2319717
    242,  -104.369667,   59.1850662,  -75.8290024
    243,  -112.333206,   59.1850662,  -63.4374809
    244,  -118.832321,   59.1850662,   -50.218956
    245,  -123.782272,   59.1850662,  -36.3457527
    246,   -127.11853,   59.1850662,  -21.9987278
    247,  -128.797607,   59.1850662,  -7.36491299
    248,  -128.797607,   59.1850662,   7.36491299
    249,   -127.11853,   59.1850662,   21.9987278
    250,  -123.782272,   59.1850662,   36.3457527
    251,  -118.832321,   59.1850662,    50.218956
    252,  -112.333206,   59.1850662,   63.4374809
    253,  -104.369667,   59.1850662,   75.8290024
    254,  -95.0455017,   59.1850662,   87.2319717
    255,  -84.4822769,   59.1850662,   97.4977417
    256,   -72.817688,   59.1850662,   106.492477
    257,  -60.2038193,   59.1850662,   114.098923
    258,  -46.8050957,   59.1850662,   120.217918
    259,  -32.7961998,   59.1850662,   124.769684
    260,  -18.3597527,   59.1850662,   127.694885
    261,  -3.68395925,   59.1850662,   128.955383
    262,   11.0398607,   59.1850662,    128.53476
    263,   25.6197586,   59.1850662,   126.438492
    264,   39.8656654,   59.1850662,   122.693901
    265,   53.5918617,   59.1850662,   117.349808
    266,      66.6194,   59.1850662,   110.475876
    267,   78.7784653,   59.1850662,   102.161728
    268,   89.9105225,   59.1850662,   92.5157394
    269,   99.8704605,   59.1850662,   81.6636734
    270,   108.528435,   59.1850662,    69.746994
    271,   115.771576,   59.1850662,    56.921051
    272,   121.505455,   59.1850662,   43.3530617
    273,   125.655327,   59.1850662,   29.2198944
    274,   128.167099,   59.1850662,   14.7058029
    275,   129.007996,   59.1850662,           0.
    276,   128.167099,   73.9813309,  -14.7058029
    277,   125.655327,   73.9813309,  -29.2198944
    278,   121.505455,   73.9813309,  -43.3530617
    279,   115.771576,   73.9813309,   -56.921051
    280,   108.528435,   73.9813309,   -69.746994
    281,   99.8704605,   73.9813309,  -81.6636734
    282,   89.9105225,   73.9813309,  -92.5157394
    283,   78.7784653,   73.9813309,  -102.161728
    284,      66.6194,   73.9813309,  -110.475876
    285,   53.5918617,   73.9813309,  -117.349808
    286,   39.8656654,   73.9813309,  -122.693901
    287,   25.6197586,   73.9813309,  -126.438492
    288,   11.0398607,   73.9813309,   -128.53476
    289,  -3.68395925,   73.9813309,  -128.955383
    290,  -18.3597527,   73.9813309,  -127.694885
    291,  -32.7961998,   73.9813309,  -124.769684
    292,  -46.8050957,   73.9813309,  -120.217918
    293,  -60.2038193,   73.9813309,  -114.098923
    294,   -72.817688,   73.9813309,  -106.492477
    295,  -84.4822769,   73.9813309,  -97.4977417
    296,  -95.0455017,   73.9813309,  -87.2319717
    297,  -104.369667,   73.9813309,  -75.8290024
    298,  -112.333206,   73.9813309,  -63.4374809
    299,  -118.832321,   73.9813309,   -50.218956
    300,  -123.782272,   73.9813309,  -36.3457527
    301,   -127.11853,   73.9813309,  -21.9987278
    302,  -128.797607,   73.9813309,  -7.36491299
    303,  -128.797607,   73.9813309,   7.36491299
    304,   -127.11853,   73.9813309,   21.9987278
    305,  -123.782272,   73.9813309,   36.3457527
    306,  -118.832321,   73.9813309,    50.218956
    307,  -112.333206,   73.9813309,   63.4374809
    308,  -104.369667,   73.9813309,   75.8290024
    309,  -95.0455017,   73.9813309,   87.2319717
    310,  -84.4822769,   73.9813309,   97.4977417
    311,   -72.817688,   73.9813309,   106.492477
    312,  -60.2038193,   73.9813309,   114.098923
    313,  -46.8050957,   73.9813309,   120.217918
    314,  -32.7961998,   73.9813309,   124.769684
    315,  -18.3597527,   73.9813309,   127.694885
    316,  -3.68395925,   73.9813309,   128.955383
    317,   11.0398607,   73.9813309,    128.53476
    318,   25.6197586,   73.9813309,   126.438492
    319,   39.8656654,   73.9813309,   122.693901
    320,   53.5918617,   73.9813309,   117.349808
    321,      66.6194,   73.9813309,   110.475876
    322,   78.7784653,   73.9813309,   102.161728
    323,   89.9105225,   73.9813309,   92.5157394
    324,   99.8704605,   73.9813309,   81.6636734
    325,   108.528435,   73.9813309,    69.746994
    326,   115.771576,   73.9813309,    56.921051
    327,   121.505455,   73.9813309,   43.3530617
    328,   125.655327,   73.9813309,   29.2198944
    329,   128.167099,   73.9813309,   14.7058029
    330,   129.007996,   73.9813309,           0.
    331,   128.167099,   88.7776031,  -14.7058029
    332,   125.655327,   88.7776031,  -29.2198944
    333,   121.505455,   88.7776031,  -43.3530617
    334,   115.771576,   88.7776031,   -56.921051
    335,   108.528435,   88.7776031,   -69.746994
    336,   99.8704605,   88.7776031,  -81.6636734
    337,   89.9105225,   88.7776031,  -92.5157394
    338,   78.7784653,   88.7776031,  -102.161728
    339,      66.6194,   88.7776031,  -110.475876
    340,   53.5918617,   88.7776031,  -117.349808
    341,   39.8656654,   88.7776031,  -122.693901
    342,   25.6197586,   88.7776031,  -126.438492
    343,   11.0398607,   88.7776031,   -128.53476
    344,  -3.68395925,   88.7776031,  -128.955383
    345,  -18.3597527,   88.7776031,  -127.694885
    346,  -32.7961998,   88.7776031,  -124.769684
    347,  -46.8050957,   88.7776031,  -120.217918
    348,  -60.2038193,   88.7776031,  -114.098923
    349,   -72.817688,   88.7776031,  -106.492477
    350,  -84.4822769,   88.7776031,  -97.4977417
    351,  -95.0455017,   88.7776031,  -87.2319717
    352,  -104.369667,   88.7776031,  -75.8290024
    353,  -112.333206,   88.7776031,  -63.4374809
    354,  -118.832321,   88.7776031,   -50.218956
    355,  -123.782272,   88.7776031,  -36.3457527
    356,   -127.11853,   88.7776031,  -21.9987278
    357,  -128.797607,   88.7776031,  -7.36491299
    358,  -128.797607,   88.7776031,   7.36491299
    359,   -127.11853,   88.7776031,   21.9987278
    360,  -123.782272,   88.7776031,   36.3457527
    361,  -118.832321,   88.7776031,    50.218956
    362,  -112.333206,   88.7776031,   63.4374809
    363,  -104.369667,   88.7776031,   75.8290024
    364,  -95.0455017,   88.7776031,   87.2319717
    365,  -84.4822769,   88.7776031,   97.4977417
    366,   -72.817688,   88.7776031,   106.492477
    367,  -60.2038193,   88.7776031,   114.098923
    368,  -46.8050957,   88.7776031,   120.217918
    369,  -32.7961998,   88.7776031,   124.769684
    370,  -18.3597527,   88.7776031,   127.694885
    371,  -3.68395925,   88.7776031,   128.955383
    372,   11.0398607,   88.7776031,    128.53476
    373,   25.6197586,   88.7776031,   126.438492
    374,   39.8656654,   88.7776031,   122.693901
    375,   53.5918617,   88.7776031,   117.349808
    376,      66.6194,   88.7776031,   110.475876
    377,   78.7784653,   88.7776031,   102.161728
    378,   89.9105225,   88.7776031,   92.5157394
    379,   99.8704605,   88.7776031,   81.6636734
    380,   108.528435,   88.7776031,    69.746994
    381,   115.771576,   88.7776031,    56.921051
    382,   121.505455,   88.7776031,   43.3530617
    383,   125.655327,   88.7776031,   29.2198944
    384,   128.167099,   88.7776031,   14.7058029
    385,   129.007996,   88.7776031,           0.
    386,   128.167099,   103.573868,  -14.7058029
    387,   125.655327,   103.573868,  -29.2198944
    388,   121.505455,   103.573868,  -43.3530617
    389,   115.771576,   103.573868,   -56.921051
    390,   108.528435,   103.573868,   -69.746994
    391,   99.8704605,   103.573868,  -81.6636734
    392,   89.9105225,   103.573868,  -92.5157394
    393,   78.7784653,   103.573868,  -102.161728
    394,      66.6194,   103.573868,  -110.475876
    395,   53.5918617,   103.573868,  -117.349808
    396,   39.8656654,   103.573868,  -122.693901
    397,   25.6197586,   103.573868,  -126.438492
    398,   11.0398607,   103.573868,   -128.53476
    399,  -3.68395925,   103.573868,  -128.955383
    400,  -18.3597527,   103.573868,  -127.694885
    401,  -32.7961998,   103.573868,  -124.769684
    402,  -46.8050957,   103.573868,  -120.217918
    403,  -60.2038193,   103.573868,  -114.098923
    404,   -72.817688,   103.573868,  -106.492477
    405,  -84.4822769,   103.573868,  -97.4977417
    406,  -95.0455017,   103.573868,  -87.2319717
    407,  -104.369667,   103.573868,  -75.8290024
    408,  -112.333206,   103.573868,  -63.4374809
    409,  -118.832321,   103.573868,   -50.218956
    410,  -123.782272,   103.573868,  -36.3457527
    411,   -127.11853,   103.573868,  -21.9987278
    412,  -128.797607,   103.573868,  -7.36491299
    413,  -128.797607,   103.573868,   7.36491299
    414,   -127.11853,   103.573868,   21.9987278
    415,  -123.782272,   103.573868,   36.3457527
    416,  -118.832321,   103.573868,    50.218956
    417,  -112.333206,   103.573868,   63.4374809
    418,  -104.369667,   103.573868,   75.8290024
    419,  -95.0455017,   103.573868,   87.2319717
    420,  -84.4822769,   103.573868,   97.4977417
    421,   -72.817688,   103.573868,   106.492477
    422,  -60.2038193,   103.573868,   114.098923
    423,  -46.8050957,   103.573868,   120.217918
    424,  -32.7961998,   103.573868,   124.769684
    425,  -18.3597527,   103.573868,   127.694885
    426,  -3.68395925,   103.573868,   128.955383
    427,   11.0398607,   103.573868,    128.53476
    428,   25.6197586,   103.573868,   126.438492
    429,   39.8656654,   103.573868,   122.693901
    430,   53.5918617,   103.573868,   117.349808
    431,      66.6194,   103.573868,   110.475876
    432,   78.7784653,   103.573868,   102.161728
    433,   89.9105225,   103.573868,   92.5157394
    434,   99.8704605,   103.573868,   81.6636734
    435,   108.528435,   103.573868,    69.746994
    436,   115.771576,   103.573868,    56.921051
    437,   121.505455,   103.573868,   43.3530617
    438,   125.655327,   103.573868,   29.2198944
    439,   128.167099,   103.573868,   14.7058029
    440,   129.007996,   103.573868,           0.
    441,   128.167099,   118.370132,  -14.7058029
    442,   125.655327,   118.370132,  -29.2198944
    443,   121.505455,   118.370132,  -43.3530617
    444,   115.771576,   118.370132,   -56.921051
    445,   108.528435,   118.370132,   -69.746994
    446,   99.8704605,   118.370132,  -81.6636734
    447,   89.9105225,   118.370132,  -92.5157394
    448,   78.7784653,   118.370132,  -102.161728
    449,      66.6194,   118.370132,  -110.475876
    450,   53.5918617,   118.370132,  -117.349808
    451,   39.8656654,   118.370132,  -122.693901
    452,   25.6197586,   118.370132,  -126.438492
    453,   11.0398607,   118.370132,   -128.53476
    454,  -3.68395925,   118.370132,  -128.955383
    455,  -18.3597527,   118.370132,  -127.694885
    456,  -32.7961998,   118.370132,  -124.769684
    457,  -46.8050957,   118.370132,  -120.217918
    458,  -60.2038193,   118.370132,  -114.098923
    459,   -72.817688,   118.370132,  -106.492477
    460,  -84.4822769,   118.370132,  -97.4977417
    461,  -95.0455017,   118.370132,  -87.2319717
    462,  -104.369667,   118.370132,  -75.8290024
    463,  -112.333206,   118.370132,  -63.4374809
    464,  -118.832321,   118.370132,   -50.218956
    465,  -123.782272,   118.370132,  -36.3457527
    466,   -127.11853,   118.370132,  -21.9987278
    467,  -128.797607,   118.370132,  -7.36491299
    468,  -128.797607,   118.370132,   7.36491299
    469,   -127.11853,   118.370132,   21.9987278
    470,  -123.782272,   118.370132,   36.3457527
    471,  -118.832321,   118.370132,    50.218956
    472,  -112.333206,   118.370132,   63.4374809
    473,  -104.369667,   118.370132,   75.8290024
    474,  -95.0455017,   118.370132,   87.2319717
    475,  -84.4822769,   118.370132,   97.4977417
    476,   -72.817688,   118.370132,   106.492477
    477,  -60.2038193,   118.370132,   114.098923
    478,  -46.8050957,   118.370132,   120.217918
    479,  -32.7961998,   118.370132,   124.769684
    480,  -18.3597527,   118.370132,   127.694885
    481,  -3.68395925,   118.370132,   128.955383
    482,   11.0398607,   118.370132,    128.53476
    483,   25.6197586,   118.370132,   126.438492
    484,   39.8656654,   118.370132,   122.693901
    485,   53.5918617,   118.370132,   117.349808
    486,      66.6194,   118.370132,   110.475876
    487,   78.7784653,   118.370132,   102.161728
    488,   89.9105225,   118.370132,   92.5157394
    489,   99.8704605,   118.370132,   81.6636734
    490,   108.528435,   118.370132,    69.746994
    491,   115.771576,   118.370132,    56.921051
    492,   121.505455,   118.370132,   43.3530617
    493,   125.655327,   118.370132,   29.2198944
    494,   128.167099,   118.370132,   14.7058029
    495,   129.007996,   118.370132,           0.
    496,   128.167099,   133.166397,  -14.7058029
    497,   125.655327,   133.166397,  -29.2198944
    498,   121.505455,   133.166397,  -43.3530617
    499,   115.771576,   133.166397,   -56.921051
    500,   108.528435,   133.166397,   -69.746994
    501,   99.8704605,   133.166397,  -81.6636734
    502,   89.9105225,   133.166397,  -92.5157394
    503,   78.7784653,   133.166397,  -102.161728
    504,      66.6194,   133.166397,  -110.475876
    505,   53.5918617,   133.166397,  -117.349808
    506,   39.8656654,   133.166397,  -122.693901
    507,   25.6197586,   133.166397,  -126.438492
    508,   11.0398607,   133.166397,   -128.53476
    509,  -3.68395925,   133.166397,  -128.955383
    510,  -18.3597527,   133.166397,  -127.694885
    511,  -32.7961998,   133.166397,  -124.769684
    512,  -46.8050957,   133.166397,  -120.217918
    513,  -60.2038193,   133.166397,  -114.098923
    514,   -72.817688,   133.166397,  -106.492477
    515,  -84.4822769,   133.166397,  -97.4977417
    516,  -95.0455017,   133.166397,  -87.2319717
    517,  -104.369667,   133.166397,  -75.8290024
    518,  -112.333206,   133.166397,  -63.4374809
    519,  -118.832321,   133.166397,   -50.218956
    520,  -123.782272,   133.166397,  -36.3457527
    521,   -127.11853,   133.166397,  -21.9987278
    522,  -128.797607,   133.166397,  -7.36491299
    523,  -128.797607,   133.166397,   7.36491299
    524,   -127.11853,   133.166397,   21.9987278
    525,  -123.782272,   133.166397,   36.3457527
    526,  -118.832321,   133.166397,    50.218956
    527,  -112.333206,   133.166397,   63.4374809
    528,  -104.369667,   133.166397,   75.8290024
    529,  -95.0455017,   133.166397,   87.2319717
    530,  -84.4822769,   133.166397,   97.4977417
    531,   -72.817688,   133.166397,   106.492477
    532,  -60.2038193,   133.166397,   114.098923
    533,  -46.8050957,   133.166397,   120.217918
    534,  -32.7961998,   133.166397,   124.769684
    535,  -18.3597527,   133.166397,   127.694885
    536,  -3.68395925,   133.166397,   128.955383
    537,   11.0398607,   133.166397,    128.53476
    538,   25.6197586,   133.166397,   126.438492
    539,   39.8656654,   133.166397,   122.693901
    540,   53.5918617,   133.166397,   117.349808
    541,      66.6194,   133.166397,   110.475876
    542,   78.7784653,   133.166397,   102.161728
    543,   89.9105225,   133.166397,   92.5157394
    544,   99.8704605,   133.166397,   81.6636734
    545,   108.528435,   133.166397,    69.746994
    546,   115.771576,   133.166397,    56.921051
    547,   121.505455,   133.166397,   43.3530617
    548,   125.655327,   133.166397,   29.2198944
    549,   128.167099,   133.166397,   14.7058029
    550,   129.007996,   133.166397,           0.
    551,   128.167099,   147.962662,  -14.7058029
    552,   125.655327,   147.962662,  -29.2198944
    553,   121.505455,   147.962662,  -43.3530617
    554,   115.771576,   147.962662,   -56.921051
    555,   108.528435,   147.962662,   -69.746994
    556,   99.8704605,   147.962662,  -81.6636734
    557,   89.9105225,   147.962662,  -92.5157394
    558,   78.7784653,   147.962662,  -102.161728
    559,      66.6194,   147.962662,  -110.475876
    560,   53.5918617,   147.962662,  -117.349808
    561,   39.8656654,   147.962662,  -122.693901
    562,   25.6197586,   147.962662,  -126.438492
    563,   11.0398607,   147.962662,   -128.53476
    564,  -3.68395925,   147.962662,  -128.955383
    565,  -18.3597527,   147.962662,  -127.694885
    566,  -32.7961998,   147.962662,  -124.769684
    567,  -46.8050957,   147.962662,  -120.217918
    568,  -60.2038193,   147.962662,  -114.098923
    569,   -72.817688,   147.962662,  -106.492477
    570,  -84.4822769,   147.962662,  -97.4977417
    571,  -95.0455017,   147.962662,  -87.2319717
    572,  -104.369667,   147.962662,  -75.8290024
    573,  -112.333206,   147.962662,  -63.4374809
    574,  -118.832321,   147.962662,   -50.218956
    575,  -123.782272,   147.962662,  -36.3457527
    576,   -127.11853,   147.962662,  -21.9987278
    577,  -128.797607,   147.962662,  -7.36491299
    578,  -128.797607,   147.962662,   7.36491299
    579,   -127.11853,   147.962662,   21.9987278
    580,  -123.782272,   147.962662,   36.3457527
    581,  -118.832321,   147.962662,    50.218956
    582,  -112.333206,   147.962662,   63.4374809
    583,  -104.369667,   147.962662,   75.8290024
    584,  -95.0455017,   147.962662,   87.2319717
    585,  -84.4822769,   147.962662,   97.4977417
    586,   -72.817688,   147.962662,   106.492477
    587,  -60.2038193,   147.962662,   114.098923
    588,  -46.8050957,   147.962662,   120.217918
    589,  -32.7961998,   147.962662,   124.769684
    590,  -18.3597527,   147.962662,   127.694885
    591,  -3.68395925,   147.962662,   128.955383
    592,   11.0398607,   147.962662,    128.53476
    593,   25.6197586,   147.962662,   126.438492
    594,   39.8656654,   147.962662,   122.693901
    595,   53.5918617,   147.962662,   117.349808
    596,      66.6194,   147.962662,   110.475876
    597,   78.7784653,   147.962662,   102.161728
    598,   89.9105225,   147.962662,   92.5157394
    599,   99.8704605,   147.962662,   81.6636734
    600,   108.528435,   147.962662,    69.746994
    601,   115.771576,   147.962662,    56.921051
    602,   121.505455,   147.962662,   43.3530617
    603,   125.655327,   147.962662,   29.2198944
    604,   128.167099,   147.962662,   14.7058029
    605,   129.007996,   147.962662,           0.
    606,   128.167099,   162.758926,  -14.7058029
    607,   125.655327,   162.758926,  -29.2198944
    608,   121.505455,   162.758926,  -43.3530617
    609,   115.771576,   162.758926,   -56.921051
    610,   108.528435,   162.758926,   -69.746994
    611,   99.8704605,   162.758926,  -81.6636734
    612,   89.9105225,   162.758926,  -92.5157394
    613,   78.7784653,   162.758926,  -102.161728
    614,      66.6194,   162.758926,  -110.475876
    615,   53.5918617,   162.758926,  -117.349808
    616,   39.8656654,   162.758926,  -122.693901
    617,   25.6197586,   162.758926,  -126.438492
    618,   11.0398607,   162.758926,   -128.53476
    619,  -3.68395925,   162.758926,  -128.955383
    620,  -18.3597527,   162.758926,  -127.694885
    621,  -32.7961998,   162.758926,  -124.769684
    622,  -46.8050957,   162.758926,  -120.217918
    623,  -60.2038193,   162.758926,  -114.098923
    624,   -72.817688,   162.758926,  -106.492477
    625,  -84.4822769,   162.758926,  -97.4977417
    626,  -95.0455017,   162.758926,  -87.2319717
    627,  -104.369667,   162.758926,  -75.8290024
    628,  -112.333206,   162.758926,  -63.4374809
    629,  -118.832321,   162.758926,   -50.218956
    630,  -123.782272,   162.758926,  -36.3457527
    631,   -127.11853,   162.758926,  -21.9987278
    632,  -128.797607,   162.758926,  -7.36491299
    633,  -128.797607,   162.758926,   7.36491299
    634,   -127.11853,   162.758926,   21.9987278
    635,  -123.782272,   162.758926,   36.3457527
    636,  -118.832321,   162.758926,    50.218956
    637,  -112.333206,   162.758926,   63.4374809
    638,  -104.369667,   162.758926,   75.8290024
    639,  -95.0455017,   162.758926,   87.2319717
    640,  -84.4822769,   162.758926,   97.4977417
    641,   -72.817688,   162.758926,   106.492477
    642,  -60.2038193,   162.758926,   114.098923
    643,  -46.8050957,   162.758926,   120.217918
    644,  -32.7961998,   162.758926,   124.769684
    645,  -18.3597527,   162.758926,   127.694885
    646,  -3.68395925,   162.758926,   128.955383
    647,   11.0398607,   162.758926,    128.53476
    648,   25.6197586,   162.758926,   126.438492
    649,   39.8656654,   162.758926,   122.693901
    650,   53.5918617,   162.758926,   117.349808
    651,      66.6194,   162.758926,   110.475876
    652,   78.7784653,   162.758926,   102.161728
    653,   89.9105225,   162.758926,   92.5157394
    654,   99.8704605,   162.758926,   81.6636734
    655,   108.528435,   162.758926,    69.746994
    656,   115.771576,   162.758926,    56.921051
    657,   121.505455,   162.758926,   43.3530617
    658,   125.655327,   162.758926,   29.2198944
    659,   128.167099,   162.758926,   14.7058029
    660,   129.007996,   162.758926,           0.
    661,   128.167099,   177.555206,  -14.7058029
    662,   125.655327,   177.555206,  -29.2198944
    663,   121.505455,   177.555206,  -43.3530617
    664,   115.771576,   177.555206,   -56.921051
    665,   108.528435,   177.555206,   -69.746994
    666,   99.8704605,   177.555206,  -81.6636734
    667,   89.9105225,   177.555206,  -92.5157394
    668,   78.7784653,   177.555206,  -102.161728
    669,      66.6194,   177.555206,  -110.475876
    670,   53.5918617,   177.555206,  -117.349808
    671,   39.8656654,   177.555206,  -122.693901
    672,   25.6197586,   177.555206,  -126.438492
    673,   11.0398607,   177.555206,   -128.53476
    674,  -3.68395925,   177.555206,  -128.955383
    675,  -18.3597527,   177.555206,  -127.694885
    676,  -32.7961998,   177.555206,  -124.769684
    677,  -46.8050957,   177.555206,  -120.217918
    678,  -60.2038193,   177.555206,  -114.098923
    679,   -72.817688,   177.555206,  -106.492477
    680,  -84.4822769,   177.555206,  -97.4977417
    681,  -95.0455017,   177.555206,  -87.2319717
    682,  -104.369667,   177.555206,  -75.8290024
    683,  -112.333206,   177.555206,  -63.4374809
    684,  -118.832321,   177.555206,   -50.218956
    685,  -123.782272,   177.555206,  -36.3457527
    686,   -127.11853,   177.555206,  -21.9987278
    687,  -128.797607,   177.555206,  -7.36491299
    688,  -128.797607,   177.555206,   7.36491299
    689,   -127.11853,   177.555206,   21.9987278
    690,  -123.782272,   177.555206,   36.3457527
    691,  -118.832321,   177.555206,    50.218956
    692,  -112.333206,   177.555206,   63.4374809
    693,  -104.369667,   177.555206,   75.8290024
    694,  -95.0455017,   177.555206,   87.2319717
    695,  -84.4822769,   177.555206,   97.4977417
    696,   -72.817688,   177.555206,   106.492477
    697,  -60.2038193,   177.555206,   114.098923
    698,  -46.8050957,   177.555206,   120.217918
    699,  -32.7961998,   177.555206,   124.769684
    700,  -18.3597527,   177.555206,   127.694885
    701,  -3.68395925,   177.555206,   128.955383
    702,   11.0398607,   177.555206,    128.53476
    703,   25.6197586,   177.555206,   126.438492
    704,   39.8656654,   177.555206,   122.693901
    705,   53.5918617,   177.555206,   117.349808
    706,      66.6194,   177.555206,   110.475876
    707,   78.7784653,   177.555206,   102.161728
    708,   89.9105225,   177.555206,   92.5157394
    709,   99.8704605,   177.555206,   81.6636734
    710,   108.528435,   177.555206,    69.746994
    711,   115.771576,   177.555206,    56.921051
    712,   121.505455,   177.555206,   43.3530617
    713,   125.655327,   177.555206,   29.2198944
    714,   128.167099,   177.555206,   14.7058029
    715,   129.007996,   177.555206,           0.
    716,   128.167099,   192.351471,  -14.7058029
    717,   125.655327,   192.351471,  -29.2198944
    718,   121.505455,   192.351471,  -43.3530617
    719,   115.771576,   192.351471,   -56.921051
    720,   108.528435,   192.351471,   -69.746994
    721,   99.8704605,   192.351471,  -81.6636734
    722,   89.9105225,   192.351471,  -92.5157394
    723,   78.7784653,   192.351471,  -102.161728
    724,      66.6194,   192.351471,  -110.475876
    725,   53.5918617,   192.351471,  -117.349808
    726,   39.8656654,   192.351471,  -122.693901
    727,   25.6197586,   192.351471,  -126.438492
    728,   11.0398607,   192.351471,   -128.53476
    729,  -3.68395925,   192.351471,  -128.955383
    730,  -18.3597527,   192.351471,  -127.694885
    731,  -32.7961998,   192.351471,  -124.769684
    732,  -46.8050957,   192.351471,  -120.217918
    733,  -60.2038193,   192.351471,  -114.098923
    734,   -72.817688,   192.351471,  -106.492477
    735,  -84.4822769,   192.351471,  -97.4977417
    736,  -95.0455017,   192.351471,  -87.2319717
    737,  -104.369667,   192.351471,  -75.8290024
    738,  -112.333206,   192.351471,  -63.4374809
    739,  -118.832321,   192.351471,   -50.218956
    740,  -123.782272,   192.351471,  -36.3457527
    741,   -127.11853,   192.351471,  -21.9987278
    742,  -128.797607,   192.351471,  -7.36491299
    743,  -128.797607,   192.351471,   7.36491299
    744,   -127.11853,   192.351471,   21.9987278
    745,  -123.782272,   192.351471,   36.3457527
    746,  -118.832321,   192.351471,    50.218956
    747,  -112.333206,   192.351471,   63.4374809
    748,  -104.369667,   192.351471,   75.8290024
    749,  -95.0455017,   192.351471,   87.2319717
    750,  -84.4822769,   192.351471,   97.4977417
    751,   -72.817688,   192.351471,   106.492477
    752,  -60.2038193,   192.351471,   114.098923
    753,  -46.8050957,   192.351471,   120.217918
    754,  -32.7961998,   192.351471,   124.769684
    755,  -18.3597527,   192.351471,   127.694885
    756,  -3.68395925,   192.351471,   128.955383
    757,   11.0398607,   192.351471,    128.53476
    758,   25.6197586,   192.351471,   126.438492
    759,   39.8656654,   192.351471,   122.693901
    760,   53.5918617,   192.351471,   117.349808
    761,      66.6194,   192.351471,   110.475876
    762,   78.7784653,   192.351471,   102.161728
    763,   89.9105225,   192.351471,   92.5157394
    764,   99.8704605,   192.351471,   81.6636734
    765,   108.528435,   192.351471,    69.746994
    766,   115.771576,   192.351471,    56.921051
    767,   121.505455,   192.351471,   43.3530617
    768,   125.655327,   192.351471,   29.2198944
    769,   128.167099,   192.351471,   14.7058029
    770,   129.007996,   192.351471,           0.
    771,   128.167099,   207.147736,  -14.7058029
    772,   125.655327,   207.147736,  -29.2198944
    773,   121.505455,   207.147736,  -43.3530617
    774,   115.771576,   207.147736,   -56.921051
    775,   108.528435,   207.147736,   -69.746994
    776,   99.8704605,   207.147736,  -81.6636734
    777,   89.9105225,   207.147736,  -92.5157394
    778,   78.7784653,   207.147736,  -102.161728
    779,      66.6194,   207.147736,  -110.475876
    780,   53.5918617,   207.147736,  -117.349808
    781,   39.8656654,   207.147736,  -122.693901
    782,   25.6197586,   207.147736,  -126.438492
    783,   11.0398607,   207.147736,   -128.53476
    784,  -3.68395925,   207.147736,  -128.955383
    785,  -18.3597527,   207.147736,  -127.694885
    786,  -32.7961998,   207.147736,  -124.769684
    787,  -46.8050957,   207.147736,  -120.217918
    788,  -60.2038193,   207.147736,  -114.098923
    789,   -72.817688,   207.147736,  -106.492477
    790,  -84.4822769,   207.147736,  -97.4977417
    791,  -95.0455017,   207.147736,  -87.2319717
    792,  -104.369667,   207.147736,  -75.8290024
    793,  -112.333206,   207.147736,  -63.4374809
    794,  -118.832321,   207.147736,   -50.218956
    795,  -123.782272,   207.147736,  -36.3457527
    796,   -127.11853,   207.147736,  -21.9987278
    797,  -128.797607,   207.147736,  -7.36491299
    798,  -128.797607,   207.147736,   7.36491299
    799,   -127.11853,   207.147736,   21.9987278
    800,  -123.782272,   207.147736,   36.3457527
    801,  -118.832321,   207.147736,    50.218956
    802,  -112.333206,   207.147736,   63.4374809
    803,  -104.369667,   207.147736,   75.8290024
    804,  -95.0455017,   207.147736,   87.2319717
    805,  -84.4822769,   207.147736,   97.4977417
    806,   -72.817688,   207.147736,   106.492477
    807,  -60.2038193,   207.147736,   114.098923
    808,  -46.8050957,   207.147736,   120.217918
    809,  -32.7961998,   207.147736,   124.769684
    810,  -18.3597527,   207.147736,   127.694885
    811,  -3.68395925,   207.147736,   128.955383
    812,   11.0398607,   207.147736,    128.53476
    813,   25.6197586,   207.147736,   126.438492
    814,   39.8656654,   207.147736,   122.693901
    815,   53.5918617,   207.147736,   117.349808
    816,      66.6194,   207.147736,   110.475876
    817,   78.7784653,   207.147736,   102.161728
    818,   89.9105225,   207.147736,   92.5157394
    819,   99.8704605,   207.147736,   81.6636734
    820,   108.528435,   207.147736,    69.746994
    821,   115.771576,   207.147736,    56.921051
    822,   121.505455,   207.147736,   43.3530617
    823,   125.655327,   207.147736,   29.2198944
    824,   128.167099,   207.147736,   14.7058029
    825,   129.007996,   207.147736,           0.
    826,   128.167099,      221.944,  -14.7058029
    827,   125.655327,      221.944,  -29.2198944
    828,   121.505455,      221.944,  -43.3530617
    829,   115.771576,      221.944,   -56.921051
    830,   108.528435,      221.944,   -69.746994
    831,   99.8704605,      221.944,  -81.6636734
    832,   89.9105225,      221.944,  -92.5157394
    833,   78.7784653,      221.944,  -102.161728
    834,      66.6194,      221.944,  -110.475876
    835,   53.5918617,      221.944,  -117.349808
    836,   39.8656654,      221.944,  -122.693901
    837,   25.6197586,      221.944,  -126.438492
    838,   11.0398607,      221.944,   -128.53476
    839,  -3.68395925,      221.944,  -128.955383
    840,  -18.3597527,      221.944,  -127.694885
    841,  -32.7961998,      221.944,  -124.769684
    842,  -46.8050957,      221.944,  -120.217918
    843,  -60.2038193,      221.944,  -114.098923
    844,   -72.817688,      221.944,  -106.492477
    845,  -84.4822769,      221.944,  -97.4977417
    846,  -95.0455017,      221.944,  -87.2319717
    847,  -104.369667,      221.944,  -75.8290024
    848,  -112.333206,      221.944,  -63.4374809
    849,  -118.832321,      221.944,   -50.218956
    850,  -123.782272,      221.944,  -36.3457527
    851,   -127.11853,      221.944,  -21.9987278
    852,  -128.797607,      221.944,  -7.36491299
    853,  -128.797607,      221.944,   7.36491299
    854,   -127.11853,      221.944,   21.9987278
    855,  -123.782272,      221.944,   36.3457527
    856,  -118.832321,      221.944,    50.218956
    857,  -112.333206,      221.944,   63.4374809
    858,  -104.369667,      221.944,   75.8290024
    859,  -95.0455017,      221.944,   87.2319717
    860,  -84.4822769,      221.944,   97.4977417
    861,   -72.817688,      221.944,   106.492477
    862,  -60.2038193,      221.944,   114.098923
    863,  -46.8050957,      221.944,   120.217918
    864,  -32.7961998,      221.944,   124.769684
    865,  -18.3597527,      221.944,   127.694885
    866,  -3.68395925,      221.944,   128.955383
    867,   11.0398607,      221.944,    128.53476
    868,   25.6197586,      221.944,   126.438492
    869,   39.8656654,      221.944,   122.693901
    870,   53.5918617,      221.944,   117.349808
    871,      66.6194,      221.944,   110.475876
    872,   78.7784653,      221.944,   102.161728
    873,   89.9105225,      221.944,   92.5157394
    874,   99.8704605,      221.944,   81.6636734
    875,   108.528435,      221.944,    69.746994
    876,   115.771576,      221.944,    56.921051
    877,   121.505455,      221.944,   43.3530617
    878,   125.655327,      221.944,   29.2198944
    879,   128.167099,      221.944,   14.7058029
    880,   129.007996,      221.944,           0.
    881,   128.167099,   236.740265,  -14.7058029
    882,   125.655327,   236.740265,  -29.2198944
    883,   121.505455,   236.740265,  -43.3530617
    884,   115.771576,   236.740265,   -56.921051
    885,   108.528435,   236.740265,   -69.746994
    886,   99.8704605,   236.740265,  -81.6636734
    887,   89.9105225,   236.740265,  -92.5157394
    888,   78.7784653,   236.740265,  -102.161728
    889,      66.6194,   236.740265,  -110.475876
    890,   53.5918617,   236.740265,  -117.349808
    891,   39.8656654,   236.740265,  -122.693901
    892,   25.6197586,   236.740265,  -126.438492
    893,   11.0398607,   236.740265,   -128.53476
    894,  -3.68395925,   236.740265,  -128.955383
    895,  -18.3597527,   236.740265,  -127.694885
    896,  -32.7961998,   236.740265,  -124.769684
    897,  -46.8050957,   236.740265,  -120.217918
    898,  -60.2038193,   236.740265,  -114.098923
    899,   -72.817688,   236.740265,  -106.492477
    900,  -84.4822769,   236.740265,  -97.4977417
    901,  -95.0455017,   236.740265,  -87.2319717
    902,  -104.369667,   236.740265,  -75.8290024
    903,  -112.333206,   236.740265,  -63.4374809
    904,  -118.832321,   236.740265,   -50.218956
    905,  -123.782272,   236.740265,  -36.3457527
    906,   -127.11853,   236.740265,  -21.9987278
    907,  -128.797607,   236.740265,  -7.36491299
    908,  -128.797607,   236.740265,   7.36491299
    909,   -127.11853,   236.740265,   21.9987278
    910,  -123.782272,   236.740265,   36.3457527
    911,  -118.832321,   236.740265,    50.218956
    912,  -112.333206,   236.740265,   63.4374809
    913,  -104.369667,   236.740265,   75.8290024
    914,  -95.0455017,   236.740265,   87.2319717
    915,  -84.4822769,   236.740265,   97.4977417
    916,   -72.817688,   236.740265,   106.492477
    917,  -60.2038193,   236.740265,   114.098923
    918,  -46.8050957,   236.740265,   120.217918
    919,  -32.7961998,   236.740265,   124.769684
    920,  -18.3597527,   236.740265,   127.694885
    921,  -3.68395925,   236.740265,   128.955383
    922,   11.0398607,   236.740265,    128.53476
    923,   25.6197586,   236.740265,   126.438492
    924,   39.8656654,   236.740265,   122.693901
    925,   53.5918617,   236.740265,   117.349808
    926,      66.6194,   236.740265,   110.475876
    927,   78.7784653,   236.740265,   102.161728
    928,   89.9105225,   236.740265,   92.5157394
    929,   99.8704605,   236.740265,   81.6636734
    930,   108.528435,   236.740265,    69.746994
    931,   115.771576,   236.740265,    56.921051
    932,   121.505455,   236.740265,   43.3530617
    933,   125.655327,   236.740265,   29.2198944
    934,   128.167099,   236.740265,   14.7058029
    935,   129.007996,   236.740265,           0.
    936,   128.167099,    251.53653,  -14.7058029
    937,   125.655327,    251.53653,  -29.2198944
    938,   121.505455,    251.53653,  -43.3530617
    939,   115.771576,    251.53653,   -56.921051
    940,   108.528435,    251.53653,   -69.746994
    941,   99.8704605,    251.53653,  -81.6636734
    942,   89.9105225,    251.53653,  -92.5157394
    943,   78.7784653,    251.53653,  -102.161728
    944,      66.6194,    251.53653,  -110.475876
    945,   53.5918617,    251.53653,  -117.349808
    946,   39.8656654,    251.53653,  -122.693901
    947,   25.6197586,    251.53653,  -126.438492
    948,   11.0398607,    251.53653,   -128.53476
    949,  -3.68395925,    251.53653,  -128.955383
    950,  -18.3597527,    251.53653,  -127.694885
    951,  -32.7961998,    251.53653,  -124.769684
    952,  -46.8050957,    251.53653,  -120.217918
    953,  -60.2038193,    251.53653,  -114.098923
    954,   -72.817688,    251.53653,  -106.492477
    955,  -84.4822769,    251.53653,  -97.4977417
    956,  -95.0455017,    251.53653,  -87.2319717
    957,  -104.369667,    251.53653,  -75.8290024
    958,  -112.333206,    251.53653,  -63.4374809
    959,  -118.832321,    251.53653,   -50.218956
    960,  -123.782272,    251.53653,  -36.3457527
    961,   -127.11853,    251.53653,  -21.9987278
    962,  -128.797607,    251.53653,  -7.36491299
    963,  -128.797607,    251.53653,   7.36491299
    964,   -127.11853,    251.53653,   21.9987278
    965,  -123.782272,    251.53653,   36.3457527
    966,  -118.832321,    251.53653,    50.218956
    967,  -112.333206,    251.53653,   63.4374809
    968,  -104.369667,    251.53653,   75.8290024
    969,  -95.0455017,    251.53653,   87.2319717
    970,  -84.4822769,    251.53653,   97.4977417
    971,   -72.817688,    251.53653,   106.492477
    972,  -60.2038193,    251.53653,   114.098923
    973,  -46.8050957,    251.53653,   120.217918
    974,  -32.7961998,    251.53653,   124.769684
    975,  -18.3597527,    251.53653,   127.694885
    976,  -3.68395925,    251.53653,   128.955383
    977,   11.0398607,    251.53653,    128.53476
    978,   25.6197586,    251.53653,   126.438492
    979,   39.8656654,    251.53653,   122.693901
    980,   53.5918617,    251.53653,   117.349808
    981,      66.6194,    251.53653,   110.475876
    982,   78.7784653,    251.53653,   102.161728
    983,   89.9105225,    251.53653,   92.5157394
    984,   99.8704605,    251.53653,   81.6636734
    985,   108.528435,    251.53653,    69.746994
    986,   115.771576,    251.53653,    56.921051
    987,   121.505455,    251.53653,   43.3530617
    988,   125.655327,    251.53653,   29.2198944
    989,   128.167099,    251.53653,   14.7058029
    990,   129.007996,    251.53653,           0.
    991,   128.167099,   266.332794,  -14.7058029
    992,   125.655327,   266.332794,  -29.2198944
    993,   121.505455,   266.332794,  -43.3530617
    994,   115.771576,   266.332794,   -56.921051
    995,   108.528435,   266.332794,   -69.746994
    996,   99.8704605,   266.332794,  -81.6636734
    997,   89.9105225,   266.332794,  -92.5157394
    998,   78.7784653,   266.332794,  -102.161728
    999,      66.6194,   266.332794,  -110.475876
   1000,   53.5918617,   266.332794,  -117.349808
   1001,   39.8656654,   266.332794,  -122.693901
   1002,   25.6197586,   266.332794,  -126.438492
   1003,   11.0398607,   266.332794,   -128.53476
   1004,  -3.68395925,   266.332794,  -128.955383
   1005,  -18.3597527,   266.332794,  -127.694885
   1006,  -32.7961998,   266.332794,  -124.769684
   1007,  -46.8050957,   266.332794,  -120.217918
   1008,  -60.2038193,   266.332794,  -114.098923
   1009,   -72.817688,   266.332794,  -106.492477
   1010,  -84.4822769,   266.332794,  -97.4977417
   1011,  -95.0455017,   266.332794,  -87.2319717
   1012,  -104.369667,   266.332794,  -75.8290024
   1013,  -112.333206,   266.332794,  -63.4374809
   1014,  -118.832321,   266.332794,   -50.218956
   1015,  -123.782272,   266.332794,  -36.3457527
   1016,   -127.11853,   266.332794,  -21.9987278
   1017,  -128.797607,   266.332794,  -7.36491299
   1018,  -128.797607,   266.332794,   7.36491299
   1019,   -127.11853,   266.332794,   21.9987278
   1020,  -123.782272,   266.332794,   36.3457527
   1021,  -118.832321,   266.332794,    50.218956
   1022,  -112.333206,   266.332794,   63.4374809
   1023,  -104.369667,   266.332794,   75.8290024
   1024,  -95.0455017,   266.332794,   87.2319717
   1025,  -84.4822769,   266.332794,   97.4977417
   1026,   -72.817688,   266.332794,   106.492477
   1027,  -60.2038193,   266.332794,   114.098923
   1028,  -46.8050957,   266.332794,   120.217918
   1029,  -32.7961998,   266.332794,   124.769684
   1030,  -18.3597527,   266.332794,   127.694885
   1031,  -3.68395925,   266.332794,   128.955383
   1032,   11.0398607,   266.332794,    128.53476
   1033,   25.6197586,   266.332794,   126.438492
   1034,   39.8656654,   266.332794,   122.693901
   1035,   53.5918617,   266.332794,   117.349808
   1036,      66.6194,   266.332794,   110.475876
   1037,   78.7784653,   266.332794,   102.161728
   1038,   89.9105225,   266.332794,   92.5157394
   1039,   99.8704605,   266.332794,   81.6636734
   1040,   108.528435,   266.332794,    69.746994
   1041,   115.771576,   266.332794,    56.921051
   1042,   121.505455,   266.332794,   43.3530617
   1043,   125.655327,   266.332794,   29.2198944
   1044,   128.167099,   266.332794,   14.7058029
   1045,   129.007996,   266.332794,           0.
   1046,   128.167099,   281.129059,  -14.7058029
   1047,   125.655327,   281.129059,  -29.2198944
   1048,   121.505455,   281.129059,  -43.3530617
   1049,   115.771576,   281.129059,   -56.921051
   1050,   108.528435,   281.129059,   -69.746994
   1051,   99.8704605,   281.129059,  -81.6636734
   1052,   89.9105225,   281.129059,  -92.5157394
   1053,   78.7784653,   281.129059,  -102.161728
   1054,      66.6194,   281.129059,  -110.475876
   1055,   53.5918617,   281.129059,  -117.349808
   1056,   39.8656654,   281.129059,  -122.693901
   1057,   25.6197586,   281.129059,  -126.438492
   1058,   11.0398607,   281.129059,   -128.53476
   1059,  -3.68395925,   281.129059,  -128.955383
   1060,  -18.3597527,   281.129059,  -127.694885
   1061,  -32.7961998,   281.129059,  -124.769684
   1062,  -46.8050957,   281.129059,  -120.217918
   1063,  -60.2038193,   281.129059,  -114.098923
   1064,   -72.817688,   281.129059,  -106.492477
   1065,  -84.4822769,   281.129059,  -97.4977417
   1066,  -95.0455017,   281.129059,  -87.2319717
   1067,  -104.369667,   281.129059,  -75.8290024
   1068,  -112.333206,   281.129059,  -63.4374809
   1069,  -118.832321,   281.129059,   -50.218956
   1070,  -123.782272,   281.129059,  -36.3457527
   1071,   -127.11853,   281.129059,  -21.9987278
   1072,  -128.797607,   281.129059,  -7.36491299
   1073,  -128.797607,   281.129059,   7.36491299
   1074,   -127.11853,   281.129059,   21.9987278
   1075,  -123.782272,   281.129059,   36.3457527
   1076,  -118.832321,   281.129059,    50.218956
   1077,  -112.333206,   281.129059,   63.4374809
   1078,  -104.369667,   281.129059,   75.8290024
   1079,  -95.0455017,   281.129059,   87.2319717
   1080,  -84.4822769,   281.129059,   97.4977417
   1081,   -72.817688,   281.129059,   106.492477
   1082,  -60.2038193,   281.129059,   114.098923
   1083,  -46.8050957,   281.129059,   120.217918
   1084,  -32.7961998,   281.129059,   124.769684
   1085,  -18.3597527,   281.129059,   127.694885
   1086,  -3.68395925,   281.129059,   128.955383
   1087,   11.0398607,   281.129059,    128.53476
   1088,   25.6197586,   281.129059,   126.438492
   1089,   39.8656654,   281.129059,   122.693901
   1090,   53.5918617,   281.129059,   117.349808
   1091,      66.6194,   281.129059,   110.475876
   1092,   78.7784653,   281.129059,   102.161728
   1093,   89.9105225,   281.129059,   92.5157394
   1094,   99.8704605,   281.129059,   81.6636734
   1095,   108.528435,   281.129059,    69.746994
   1096,   115.771576,   281.129059,    56.921051
   1097,   121.505455,   281.129059,   43.3530617
   1098,   125.655327,   281.129059,   29.2198944
   1099,   128.167099,   281.129059,   14.7058029
   1100,   129.007996,   281.129059,           0.
   1101,   128.167099,   295.925323,  -14.7058029
   1102,   125.655327,   295.925323,  -29.2198944
   1103,   121.505455,   295.925323,  -43.3530617
   1104,   115.771576,   295.925323,   -56.921051
   1105,   108.528435,   295.925323,   -69.746994
   1106,   99.8704605,   295.925323,  -81.6636734
   1107,   89.9105225,   295.925323,  -92.5157394
   1108,   78.7784653,   295.925323,  -102.161728
   1109,      66.6194,   295.925323,  -110.475876
   1110,   53.5918617,   295.925323,  -117.349808
   1111,   39.8656654,   295.925323,  -122.693901
   1112,   25.6197586,   295.925323,  -126.438492
   1113,   11.0398607,   295.925323,   -128.53476
   1114,  -3.68395925,   295.925323,  -128.955383
   1115,  -18.3597527,   295.925323,  -127.694885
   1116,  -32.7961998,   295.925323,  -124.769684
   1117,  -46.8050957,   295.925323,  -120.217918
   1118,  -60.2038193,   295.925323,  -114.098923
   1119,   -72.817688,   295.925323,  -106.492477
   1120,  -84.4822769,   295.925323,  -97.4977417
   1121,  -95.0455017,   295.925323,  -87.2319717
   1122,  -104.369667,   295.925323,  -75.8290024
   1123,  -112.333206,   295.925323,  -63.4374809
   1124,  -118.832321,   295.925323,   -50.218956
   1125,  -123.782272,   295.925323,  -36.3457527
   1126,   -127.11853,   295.925323,  -21.9987278
   1127,  -128.797607,   295.925323,  -7.36491299
   1128,  -128.797607,   295.925323,   7.36491299
   1129,   -127.11853,   295.925323,   21.9987278
   1130,  -123.782272,   295.925323,   36.3457527
   1131,  -118.832321,   295.925323,    50.218956
   1132,  -112.333206,   295.925323,   63.4374809
   1133,  -104.369667,   295.925323,   75.8290024
   1134,  -95.0455017,   295.925323,   87.2319717
   1135,  -84.4822769,   295.925323,   97.4977417
   1136,   -72.817688,   295.925323,   106.492477
   1137,  -60.2038193,   295.925323,   114.098923
   1138,  -46.8050957,   295.925323,   120.217918
   1139,  -32.7961998,   295.925323,   124.769684
   1140,  -18.3597527,   295.925323,   127.694885
   1141,  -3.68395925,   295.925323,   128.955383
   1142,   11.0398607,   295.925323,    128.53476
   1143,   25.6197586,   295.925323,   126.438492
   1144,   39.8656654,   295.925323,   122.693901
   1145,   53.5918617,   295.925323,   117.349808
   1146,      66.6194,   295.925323,   110.475876
   1147,   78.7784653,   295.925323,   102.161728
   1148,   89.9105225,   295.925323,   92.5157394
   1149,   99.8704605,   295.925323,   81.6636734
   1150,   108.528435,   295.925323,    69.746994
   1151,   115.771576,   295.925323,    56.921051
   1152,   121.505455,   295.925323,   43.3530617
   1153,   125.655327,   295.925323,   29.2198944
   1154,   128.167099,   295.925323,   14.7058029
   1155,   129.007996,   295.925323,           0.
   1156,   128.167099,   310.721588,  -14.7058029
   1157,   125.655327,   310.721588,  -29.2198944
   1158,   121.505455,   310.721588,  -43.3530617
   1159,   115.771576,   310.721588,   -56.921051
   1160,   108.528435,   310.721588,   -69.746994
   1161,   99.8704605,   310.721588,  -81.6636734
   1162,   89.9105225,   310.721588,  -92.5157394
   1163,   78.7784653,   310.721588,  -102.161728
   1164,      66.6194,   310.721588,  -110.475876
   1165,   53.5918617,   310.721588,  -117.349808
   1166,   39.8656654,   310.721588,  -122.693901
   1167,   25.6197586,   310.721588,  -126.438492
   1168,   11.0398607,   310.721588,   -128.53476
   1169,  -3.68395925,   310.721588,  -128.955383
   1170,  -18.3597527,   310.721588,  -127.694885
   1171,  -32.7961998,   310.721588,  -124.769684
   1172,  -46.8050957,   310.721588,  -120.217918
   1173,  -60.2038193,   310.721588,  -114.098923
   1174,   -72.817688,   310.721588,  -106.492477
   1175,  -84.4822769,   310.721588,  -97.4977417
   1176,  -95.0455017,   310.721588,  -87.2319717
   1177,  -104.369667,   310.721588,  -75.8290024
   1178,  -112.333206,   310.721588,  -63.4374809
   1179,  -118.832321,   310.721588,   -50.218956
   1180,  -123.782272,   310.721588,  -36.3457527
   1181,   -127.11853,   310.721588,  -21.9987278
   1182,  -128.797607,   310.721588,  -7.36491299
   1183,  -128.797607,   310.721588,   7.36491299
   1184,   -127.11853,   310.721588,   21.9987278
   1185,  -123.782272,   310.721588,   36.3457527
   1186,  -118.832321,   310.721588,    50.218956
   1187,  -112.333206,   310.721588,   63.4374809
   1188,  -104.369667,   310.721588,   75.8290024
   1189,  -95.0455017,   310.721588,   87.2319717
   1190,  -84.4822769,   310.721588,   97.4977417
   1191,   -72.817688,   310.721588,   106.492477
   1192,  -60.2038193,   310.721588,   114.098923
   1193,  -46.8050957,   310.721588,   120.217918
   1194,  -32.7961998,   310.721588,   124.769684
   1195,  -18.3597527,   310.721588,   127.694885
   1196,  -3.68395925,   310.721588,   128.955383
   1197,   11.0398607,   310.721588,    128.53476
   1198,   25.6197586,   310.721588,   126.438492
   1199,   39.8656654,   310.721588,   122.693901
   1200,   53.5918617,   310.721588,   117.349808
   1201,      66.6194,   310.721588,   110.475876
   1202,   78.7784653,   310.721588,   102.161728
   1203,   89.9105225,   310.721588,   92.5157394
   1204,   99.8704605,   310.721588,   81.6636734
   1205,   108.528435,   310.721588,    69.746994
   1206,   115.771576,   310.721588,    56.921051
   1207,   121.505455,   310.721588,   43.3530617
   1208,   125.655327,   310.721588,   29.2198944
   1209,   128.167099,   310.721588,   14.7058029
   1210,   129.007996,   310.721588,           0.
   1211,   128.167099,   325.517853,  -14.7058029
   1212,   125.655327,   325.517853,  -29.2198944
   1213,   121.505455,   325.517853,  -43.3530617
   1214,   115.771576,   325.517853,   -56.921051
   1215,   108.528435,   325.517853,   -69.746994
   1216,   99.8704605,   325.517853,  -81.6636734
   1217,   89.9105225,   325.517853,  -92.5157394
   1218,   78.7784653,   325.517853,  -102.161728
   1219,      66.6194,   325.517853,  -110.475876
   1220,   53.5918617,   325.517853,  -117.349808
   1221,   39.8656654,   325.517853,  -122.693901
   1222,   25.6197586,   325.517853,  -126.438492
   1223,   11.0398607,   325.517853,   -128.53476
   1224,  -3.68395925,   325.517853,  -128.955383
   1225,  -18.3597527,   325.517853,  -127.694885
   1226,  -32.7961998,   325.517853,  -124.769684
   1227,  -46.8050957,   325.517853,  -120.217918
   1228,  -60.2038193,   325.517853,  -114.098923
   1229,   -72.817688,   325.517853,  -106.492477
   1230,  -84.4822769,   325.517853,  -97.4977417
   1231,  -95.0455017,   325.517853,  -87.2319717
   1232,  -104.369667,   325.517853,  -75.8290024
   1233,  -112.333206,   325.517853,  -63.4374809
   1234,  -118.832321,   325.517853,   -50.218956
   1235,  -123.782272,   325.517853,  -36.3457527
   1236,   -127.11853,   325.517853,  -21.9987278
   1237,  -128.797607,   325.517853,  -7.36491299
   1238,  -128.797607,   325.517853,   7.36491299
   1239,   -127.11853,   325.517853,   21.9987278
   1240,  -123.782272,   325.517853,   36.3457527
   1241,  -118.832321,   325.517853,    50.218956
   1242,  -112.333206,   325.517853,   63.4374809
   1243,  -104.369667,   325.517853,   75.8290024
   1244,  -95.0455017,   325.517853,   87.2319717
   1245,  -84.4822769,   325.517853,   97.4977417
   1246,   -72.817688,   325.517853,   106.492477
   1247,  -60.2038193,   325.517853,   114.098923
   1248,  -46.8050957,   325.517853,   120.217918
   1249,  -32.7961998,   325.517853,   124.769684
   1250,  -18.3597527,   325.517853,   127.694885
   1251,  -3.68395925,   325.517853,   128.955383
   1252,   11.0398607,   325.517853,    128.53476
   1253,   25.6197586,   325.517853,   126.438492
   1254,   39.8656654,   325.517853,   122.693901
   1255,   53.5918617,   325.517853,   117.349808
   1256,      66.6194,   325.517853,   110.475876
   1257,   78.7784653,   325.517853,   102.161728
   1258,   89.9105225,   325.517853,   92.5157394
   1259,   99.8704605,   325.517853,   81.6636734
   1260,   108.528435,   325.517853,    69.746994
   1261,   115.771576,   325.517853,    56.921051
   1262,   121.505455,   325.517853,   43.3530617
   1263,   125.655327,   325.517853,   29.2198944
   1264,   128.167099,   325.517853,   14.7058029
   1265,   129.007996,   325.517853,           0.
   1266,   128.167099,   340.314148,  -14.7058029
   1267,   125.655327,   340.314148,  -29.2198944
   1268,   121.505455,   340.314148,  -43.3530617
   1269,   115.771576,   340.314148,   -56.921051
   1270,   108.528435,   340.314148,   -69.746994
   1271,   99.8704605,   340.314148,  -81.6636734
   1272,   89.9105225,   340.314148,  -92.5157394
   1273,   78.7784653,   340.314148,  -102.161728
   1274,      66.6194,   340.314148,  -110.475876
   1275,   53.5918617,   340.314148,  -117.349808
   1276,   39.8656654,   340.314148,  -122.693901
   1277,   25.6197586,   340.314148,  -126.438492
   1278,   11.0398607,   340.314148,   -128.53476
   1279,  -3.68395925,   340.314148,  -128.955383
   1280,  -18.3597527,   340.314148,  -127.694885
   1281,  -32.7961998,   340.314148,  -124.769684
   1282,  -46.8050957,   340.314148,  -120.217918
   1283,  -60.2038193,   340.314148,  -114.098923
   1284,   -72.817688,   340.314148,  -106.492477
   1285,  -84.4822769,   340.314148,  -97.4977417
   1286,  -95.0455017,   340.314148,  -87.2319717
   1287,  -104.369667,   340.314148,  -75.8290024
   1288,  -112.333206,   340.314148,  -63.4374809
   1289,  -118.832321,   340.314148,   -50.218956
   1290,  -123.782272,   340.314148,  -36.3457527
   1291,   -127.11853,   340.314148,  -21.9987278
   1292,  -128.797607,   340.314148,  -7.36491299
   1293,  -128.797607,   340.314148,   7.36491299
   1294,   -127.11853,   340.314148,   21.9987278
   1295,  -123.782272,   340.314148,   36.3457527
   1296,  -118.832321,   340.314148,    50.218956
   1297,  -112.333206,   340.314148,   63.4374809
   1298,  -104.369667,   340.314148,   75.8290024
   1299,  -95.0455017,   340.314148,   87.2319717
   1300,  -84.4822769,   340.314148,   97.4977417
   1301,   -72.817688,   340.314148,   106.492477
   1302,  -60.2038193,   340.314148,   114.098923
   1303,  -46.8050957,   340.314148,   120.217918
   1304,  -32.7961998,   340.314148,   124.769684
   1305,  -18.3597527,   340.314148,   127.694885
   1306,  -3.68395925,   340.314148,   128.955383
   1307,   11.0398607,   340.314148,    128.53476
   1308,   25.6197586,   340.314148,   126.438492
   1309,   39.8656654,   340.314148,   122.693901
   1310,   53.5918617,   340.314148,   117.349808
   1311,      66.6194,   340.314148,   110.475876
   1312,   78.7784653,   340.314148,   102.161728
   1313,   89.9105225,   340.314148,   92.5157394
   1314,   99.8704605,   340.314148,   81.6636734
   1315,   108.528435,   340.314148,    69.746994
   1316,   115.771576,   340.314148,    56.921051
   1317,   121.505455,   340.314148,   43.3530617
   1318,   125.655327,   340.314148,   29.2198944
   1319,   128.167099,   340.314148,   14.7058029
   1320,   129.007996,   340.314148,           0.
   1321,   128.167099,   355.110413,  -14.7058029
   1322,   125.655327,   355.110413,  -29.2198944
   1323,   121.505455,   355.110413,  -43.3530617
   1324,   115.771576,   355.110413,   -56.921051
   1325,   108.528435,   355.110413,   -69.746994
   1326,   99.8704605,   355.110413,  -81.6636734
   1327,   89.9105225,   355.110413,  -92.5157394
   1328,   78.7784653,   355.110413,  -102.161728
   1329,      66.6194,   355.110413,  -110.475876
   1330,   53.5918617,   355.110413,  -117.349808
   1331,   39.8656654,   355.110413,  -122.693901
   1332,   25.6197586,   355.110413,  -126.438492
   1333,   11.0398607,   355.110413,   -128.53476
   1334,  -3.68395925,   355.110413,  -128.955383
   1335,  -18.3597527,   355.110413,  -127.694885
   1336,  -32.7961998,   355.110413,  -124.769684
   1337,  -46.8050957,   355.110413,  -120.217918
   1338,  -60.2038193,   355.110413,  -114.098923
   1339,   -72.817688,   355.110413,  -106.492477
   1340,  -84.4822769,   355.110413,  -97.4977417
   1341,  -95.0455017,   355.110413,  -87.2319717
   1342,  -104.369667,   355.110413,  -75.8290024
   1343,  -112.333206,   355.110413,  -63.4374809
   1344,  -118.832321,   355.110413,   -50.218956
   1345,  -123.782272,   355.110413,  -36.3457527
   1346,   -127.11853,   355.110413,  -21.9987278
   1347,  -128.797607,   355.110413,  -7.36491299
   1348,  -128.797607,   355.110413,   7.36491299
   1349,   -127.11853,   355.110413,   21.9987278
   1350,  -123.782272,   355.110413,   36.3457527
   1351,  -118.832321,   355.110413,    50.218956
   1352,  -112.333206,   355.110413,   63.4374809
   1353,  -104.369667,   355.110413,   75.8290024
   1354,  -95.0455017,   355.110413,   87.2319717
   1355,  -84.4822769,   355.110413,   97.4977417
   1356,   -72.817688,   355.110413,   106.492477
   1357,  -60.2038193,   355.110413,   114.098923
   1358,  -46.8050957,   355.110413,   120.217918
   1359,  -32.7961998,   355.110413,   124.769684
   1360,  -18.3597527,   355.110413,   127.694885
   1361,  -3.68395925,   355.110413,   128.955383
   1362,   11.0398607,   355.110413,    128.53476
   1363,   25.6197586,   355.110413,   126.438492
   1364,   39.8656654,   355.110413,   122.693901
   1365,   53.5918617,   355.110413,   117.349808
   1366,      66.6194,   355.110413,   110.475876
   1367,   78.7784653,   355.110413,   102.161728
   1368,   89.9105225,   355.110413,   92.5157394
   1369,   99.8704605,   355.110413,   81.6636734
   1370,   108.528435,   355.110413,    69.746994
   1371,   115.771576,   355.110413,    56.921051
   1372,   121.505455,   355.110413,   43.3530617
   1373,   125.655327,   355.110413,   29.2198944
   1374,   128.167099,   355.110413,   14.7058029
   1375,   129.007996,   355.110413,           0.
   1376,   128.167099,   369.906677,  -14.7058029
   1377,   125.655327,   369.906677,  -29.2198944
   1378,   121.505455,   369.906677,  -43.3530617
   1379,   115.771576,   369.906677,   -56.921051
   1380,   108.528435,   369.906677,   -69.746994
   1381,   99.8704605,   369.906677,  -81.6636734
   1382,   89.9105225,   369.906677,  -92.5157394
   1383,   78.7784653,   369.906677,  -102.161728
   1384,      66.6194,   369.906677,  -110.475876
   1385,   53.5918617,   369.906677,  -117.349808
   1386,   39.8656654,   369.906677,  -122.693901
   1387,   25.6197586,   369.906677,  -126.438492
   1388,   11.0398607,   369.906677,   -128.53476
   1389,  -3.68395925,   369.906677,  -128.955383
   1390,  -18.3597527,   369.906677,  -127.694885
   1391,  -32.7961998,   369.906677,  -124.769684
   1392,  -46.8050957,   369.906677,  -120.217918
   1393,  -60.2038193,   369.906677,  -114.098923
   1394,   -72.817688,   369.906677,  -106.492477
   1395,  -84.4822769,   369.906677,  -97.4977417
   1396,  -95.0455017,   369.906677,  -87.2319717
   1397,  -104.369667,   369.906677,  -75.8290024
   1398,  -112.333206,   369.906677,  -63.4374809
   1399,  -118.832321,   369.906677,   -50.218956
   1400,  -123.782272,   369.906677,  -36.3457527
   1401,   -127.11853,   369.906677,  -21.9987278
   1402,  -128.797607,   369.906677,  -7.36491299
   1403,  -128.797607,   369.906677,   7.36491299
   1404,   -127.11853,   369.906677,   21.9987278
   1405,  -123.782272,   369.906677,   36.3457527
   1406,  -118.832321,   369.906677,    50.218956
   1407,  -112.333206,   369.906677,   63.4374809
   1408,  -104.369667,   369.906677,   75.8290024
   1409,  -95.0455017,   369.906677,   87.2319717
   1410,  -84.4822769,   369.906677,   97.4977417
   1411,   -72.817688,   369.906677,   106.492477
   1412,  -60.2038193,   369.906677,   114.098923
   1413,  -46.8050957,   369.906677,   120.217918
   1414,  -32.7961998,   369.906677,   124.769684
   1415,  -18.3597527,   369.906677,   127.694885
   1416,  -3.68395925,   369.906677,   128.955383
   1417,   11.0398607,   369.906677,    128.53476
   1418,   25.6197586,   369.906677,   126.438492
   1419,   39.8656654,   369.906677,   122.693901
   1420,   53.5918617,   369.906677,   117.349808
   1421,      66.6194,   369.906677,   110.475876
   1422,   78.7784653,   369.906677,   102.161728
   1423,   89.9105225,   369.906677,   92.5157394
   1424,   99.8704605,   369.906677,   81.6636734
   1425,   108.528435,   369.906677,    69.746994
   1426,   115.771576,   369.906677,    56.921051
   1427,   121.505455,   369.906677,   43.3530617
   1428,   125.655327,   369.906677,   29.2198944
   1429,   128.167099,   369.906677,   14.7058029
   1430,   129.007996,   369.906677,           0.
   1431,   128.167099,   384.702942,  -14.7058029
   1432,   125.655327,   384.702942,  -29.2198944
   1433,   121.505455,   384.702942,  -43.3530617
   1434,   115.771576,   384.702942,   -56.921051
   1435,   108.528435,   384.702942,   -69.746994
   1436,   99.8704605,   384.702942,  -81.6636734
   1437,   89.9105225,   384.702942,  -92.5157394
   1438,   78.7784653,   384.702942,  -102.161728
   1439,      66.6194,   384.702942,  -110.475876
   1440,   53.5918617,   384.702942,  -117.349808
   1441,   39.8656654,   384.702942,  -122.693901
   1442,   25.6197586,   384.702942,  -126.438492
   1443,   11.0398607,   384.702942,   -128.53476
   1444,  -3.68395925,   384.702942,  -128.955383
   1445,  -18.3597527,   384.702942,  -127.694885
   1446,  -32.7961998,   384.702942,  -124.769684
   1447,  -46.8050957,   384.702942,  -120.217918
   1448,  -60.2038193,   384.702942,  -114.098923
   1449,   -72.817688,   384.702942,  -106.492477
   1450,  -84.4822769,   384.702942,  -97.4977417
   1451,  -95.0455017,   384.702942,  -87.2319717
   1452,  -104.369667,   384.702942,  -75.8290024
   1453,  -112.333206,   384.702942,  -63.4374809
   1454,  -118.832321,   384.702942,   -50.218956
   1455,  -123.782272,   384.702942,  -36.3457527
   1456,   -127.11853,   384.702942,  -21.9987278
   1457,  -128.797607,   384.702942,  -7.36491299
   1458,  -128.797607,   384.702942,   7.36491299
   1459,   -127.11853,   384.702942,   21.9987278
   1460,  -123.782272,   384.702942,   36.3457527
   1461,  -118.832321,   384.702942,    50.218956
   1462,  -112.333206,   384.702942,   63.4374809
   1463,  -104.369667,   384.702942,   75.8290024
   1464,  -95.0455017,   384.702942,   87.2319717
   1465,  -84.4822769,   384.702942,   97.4977417
   1466,   -72.817688,   384.702942,   106.492477
   1467,  -60.2038193,   384.702942,   114.098923
   1468,  -46.8050957,   384.702942,   120.217918
   1469,  -32.7961998,   384.702942,   124.769684
   1470,  -18.3597527,   384.702942,   127.694885
   1471,  -3.68395925,   384.702942,   128.955383
   1472,   11.0398607,   384.702942,    128.53476
   1473,   25.6197586,   384.702942,   126.438492
   1474,   39.8656654,   384.702942,   122.693901
   1475,   53.5918617,   384.702942,   117.349808
   1476,      66.6194,   384.702942,   110.475876
   1477,   78.7784653,   384.702942,   102.161728
   1478,   89.9105225,   384.702942,   92.5157394
   1479,   99.8704605,   384.702942,   81.6636734
   1480,   108.528435,   384.702942,    69.746994
   1481,   115.771576,   384.702942,    56.921051
   1482,   121.505455,   384.702942,   43.3530617
   1483,   125.655327,   384.702942,   29.2198944
   1484,   128.167099,   384.702942,   14.7058029
   1485,   129.007996,   384.702942,           0.
   1486,   128.167099,   399.499207,  -14.7058029
   1487,   125.655327,   399.499207,  -29.2198944
   1488,   121.505455,   399.499207,  -43.3530617
   1489,   115.771576,   399.499207,   -56.921051
   1490,   108.528435,   399.499207,   -69.746994
   1491,   99.8704605,   399.499207,  -81.6636734
   1492,   89.9105225,   399.499207,  -92.5157394
   1493,   78.7784653,   399.499207,  -102.161728
   1494,      66.6194,   399.499207,  -110.475876
   1495,   53.5918617,   399.499207,  -117.349808
   1496,   39.8656654,   399.499207,  -122.693901
   1497,   25.6197586,   399.499207,  -126.438492
   1498,   11.0398607,   399.499207,   -128.53476
   1499,  -3.68395925,   399.499207,  -128.955383
   1500,  -18.3597527,   399.499207,  -127.694885
   1501,  -32.7961998,   399.499207,  -124.769684
   1502,  -46.8050957,   399.499207,  -120.217918
   1503,  -60.2038193,   399.499207,  -114.098923
   1504,   -72.817688,   399.499207,  -106.492477
   1505,  -84.4822769,   399.499207,  -97.4977417
   1506,  -95.0455017,   399.499207,  -87.2319717
   1507,  -104.369667,   399.499207,  -75.8290024
   1508,  -112.333206,   399.499207,  -63.4374809
   1509,  -118.832321,   399.499207,   -50.218956
   1510,  -123.782272,   399.499207,  -36.3457527
   1511,   -127.11853,   399.499207,  -21.9987278
   1512,  -128.797607,   399.499207,  -7.36491299
   1513,  -128.797607,   399.499207,   7.36491299
   1514,   -127.11853,   399.499207,   21.9987278
   1515,  -123.782272,   399.499207,   36.3457527
   1516,  -118.832321,   399.499207,    50.218956
   1517,  -112.333206,   399.499207,   63.4374809
   1518,  -104.369667,   399.499207,   75.8290024
   1519,  -95.0455017,   399.499207,   87.2319717
   1520,  -84.4822769,   399.499207,   97.4977417
   1521,   -72.817688,   399.499207,   106.492477
   1522,  -60.2038193,   399.499207,   114.098923
   1523,  -46.8050957,   399.499207,   120.217918
   1524,  -32.7961998,   399.499207,   124.769684
   1525,  -18.3597527,   399.499207,   127.694885
   1526,  -3.68395925,   399.499207,   128.955383
   1527,   11.0398607,   399.499207,    128.53476
   1528,   25.6197586,   399.499207,   126.438492
   1529,   39.8656654,   399.499207,   122.693901
   1530,   53.5918617,   399.499207,   117.349808
   1531,      66.6194,   399.499207,   110.475876
   1532,   78.7784653,   399.499207,   102.161728
   1533,   89.9105225,   399.499207,   92.5157394
   1534,   99.8704605,   399.499207,   81.6636734
   1535,   108.528435,   399.499207,    69.746994
   1536,   115.771576,   399.499207,    56.921051
   1537,   121.505455,   399.499207,   43.3530617
   1538,   125.655327,   399.499207,   29.2198944
   1539,   128.167099,   399.499207,   14.7058029
   1540,   129.007996,   399.499207,           0.
   1541,   128.167099,   414.295471,  -14.7058029
   1542,   125.655327,   414.295471,  -29.2198944
   1543,   121.505455,   414.295471,  -43.3530617
   1544,   115.771576,   414.295471,   -56.921051
   1545,   108.528435,   414.295471,   -69.746994
   1546,   99.8704605,   414.295471,  -81.6636734
   1547,   89.9105225,   414.295471,  -92.5157394
   1548,   78.7784653,   414.295471,  -102.161728
   1549,      66.6194,   414.295471,  -110.475876
   1550,   53.5918617,   414.295471,  -117.349808
   1551,   39.8656654,   414.295471,  -122.693901
   1552,   25.6197586,   414.295471,  -126.438492
   1553,   11.0398607,   414.295471,   -128.53476
   1554,  -3.68395925,   414.295471,  -128.955383
   1555,  -18.3597527,   414.295471,  -127.694885
   1556,  -32.7961998,   414.295471,  -124.769684
   1557,  -46.8050957,   414.295471,  -120.217918
   1558,  -60.2038193,   414.295471,  -114.098923
   1559,   -72.817688,   414.295471,  -106.492477
   1560,  -84.4822769,   414.295471,  -97.4977417
   1561,  -95.0455017,   414.295471,  -87.2319717
   1562,  -104.369667,   414.295471,  -75.8290024
   1563,  -112.333206,   414.295471,  -63.4374809
   1564,  -118.832321,   414.295471,   -50.218956
   1565,  -123.782272,   414.295471,  -36.3457527
   1566,   -127.11853,   414.295471,  -21.9987278
   1567,  -128.797607,   414.295471,  -7.36491299
   1568,  -128.797607,   414.295471,   7.36491299
   1569,   -127.11853,   414.295471,   21.9987278
   1570,  -123.782272,   414.295471,   36.3457527
   1571,  -118.832321,   414.295471,    50.218956
   1572,  -112.333206,   414.295471,   63.4374809
   1573,  -104.369667,   414.295471,   75.8290024
   1574,  -95.0455017,   414.295471,   87.2319717
   1575,  -84.4822769,   414.295471,   97.4977417
   1576,   -72.817688,   414.295471,   106.492477
   1577,  -60.2038193,   414.295471,   114.098923
   1578,  -46.8050957,   414.295471,   120.217918
   1579,  -32.7961998,   414.295471,   124.769684
   1580,  -18.3597527,   414.295471,   127.694885
   1581,  -3.68395925,   414.295471,   128.955383
   1582,   11.0398607,   414.295471,    128.53476
   1583,   25.6197586,   414.295471,   126.438492
   1584,   39.8656654,   414.295471,   122.693901
   1585,   53.5918617,   414.295471,   117.349808
   1586,      66.6194,   414.295471,   110.475876
   1587,   78.7784653,   414.295471,   102.161728
   1588,   89.9105225,   414.295471,   92.5157394
   1589,   99.8704605,   414.295471,   81.6636734
   1590,   108.528435,   414.295471,    69.746994
   1591,   115.771576,   414.295471,    56.921051
   1592,   121.505455,   414.295471,   43.3530617
   1593,   125.655327,   414.295471,   29.2198944
   1594,   128.167099,   414.295471,   14.7058029
   1595,   129.007996,   414.295471,           0.
   1596,   128.167099,   429.091736,  -14.7058029
   1597,   125.655327,   429.091736,  -29.2198944
   1598,   121.505455,   429.091736,  -43.3530617
   1599,   115.771576,   429.091736,   -56.921051
   1600,   108.528435,   429.091736,   -69.746994
   1601,   99.8704605,   429.091736,  -81.6636734
   1602,   89.9105225,   429.091736,  -92.5157394
   1603,   78.7784653,   429.091736,  -102.161728
   1604,      66.6194,   429.091736,  -110.475876
   1605,   53.5918617,   429.091736,  -117.349808
   1606,   39.8656654,   429.091736,  -122.693901
   1607,   25.6197586,   429.091736,  -126.438492
   1608,   11.0398607,   429.091736,   -128.53476
   1609,  -3.68395925,   429.091736,  -128.955383
   1610,  -18.3597527,   429.091736,  -127.694885
   1611,  -32.7961998,   429.091736,  -124.769684
   1612,  -46.8050957,   429.091736,  -120.217918
   1613,  -60.2038193,   429.091736,  -114.098923
   1614,   -72.817688,   429.091736,  -106.492477
   1615,  -84.4822769,   429.091736,  -97.4977417
   1616,  -95.0455017,   429.091736,  -87.2319717
   1617,  -104.369667,   429.091736,  -75.8290024
   1618,  -112.333206,   429.091736,  -63.4374809
   1619,  -118.832321,   429.091736,   -50.218956
   1620,  -123.782272,   429.091736,  -36.3457527
   1621,   -127.11853,   429.091736,  -21.9987278
   1622,  -128.797607,   429.091736,  -7.36491299
   1623,  -128.797607,   429.091736,   7.36491299
   1624,   -127.11853,   429.091736,   21.9987278
   1625,  -123.782272,   429.091736,   36.3457527
   1626,  -118.832321,   429.091736,    50.218956
   1627,  -112.333206,   429.091736,   63.4374809
   1628,  -104.369667,   429.091736,   75.8290024
   1629,  -95.0455017,   429.091736,   87.2319717
   1630,  -84.4822769,   429.091736,   97.4977417
   1631,   -72.817688,   429.091736,   106.492477
   1632,  -60.2038193,   429.091736,   114.098923
   1633,  -46.8050957,   429.091736,   120.217918
   1634,  -32.7961998,   429.091736,   124.769684
   1635,  -18.3597527,   429.091736,   127.694885
   1636,  -3.68395925,   429.091736,   128.955383
   1637,   11.0398607,   429.091736,    128.53476
   1638,   25.6197586,   429.091736,   126.438492
   1639,   39.8656654,   429.091736,   122.693901
   1640,   53.5918617,   429.091736,   117.349808
   1641,      66.6194,   429.091736,   110.475876
   1642,   78.7784653,   429.091736,   102.161728
   1643,   89.9105225,   429.091736,   92.5157394
   1644,   99.8704605,   429.091736,   81.6636734
   1645,   108.528435,   429.091736,    69.746994
   1646,   115.771576,   429.091736,    56.921051
   1647,   121.505455,   429.091736,   43.3530617
   1648,   125.655327,   429.091736,   29.2198944
   1649,   128.167099,   429.091736,   14.7058029
   1650,   129.007996,   429.091736,           0.
   1651,   128.167099,      443.888,  -14.7058039
   1652,   125.655327,      443.888,  -29.2198944
   1653,   121.505455,      443.888,  -43.3530617
   1654,   115.771576,      443.888,   -56.921051
   1655,   108.528435,      443.888,   -69.746994
   1656,   99.8704605,      443.888,  -81.6636734
   1657,   89.9105225,      443.888,  -92.5157394
   1658,   78.7784653,      443.888,  -102.161728
   1659,      66.6194,      443.888,  -110.475876
   1660,   53.5918617,      443.888,  -117.349808
   1661,   39.8656654,      443.888,  -122.693901
   1662,   25.6197586,      443.888,  -126.438492
   1663,   11.0398607,      443.888,   -128.53476
   1664,  -3.68395901,      443.888,  -128.955383
   1665,  -18.3597527,      443.888,  -127.694885
   1666,  -32.7961998,      443.888,  -124.769684
   1667,  -46.8050957,      443.888,  -120.217918
   1668,  -60.2038193,      443.888,  -114.098923
   1669,   -72.817688,      443.888,  -106.492477
   1670,  -84.4822769,      443.888,  -97.4977417
   1671,  -95.0455017,      443.888,  -87.2319717
   1672,  -104.369667,      443.888,  -75.8290024
   1673,  -112.333206,      443.888,  -63.4374809
   1674,  -118.832321,      443.888,   -50.218956
   1675,  -123.782272,      443.888,  -36.3457527
   1676,   -127.11853,      443.888,  -21.9987278
   1677,  -128.797607,      443.888,  -7.36491346
   1678,  -128.797607,      443.888,   7.36491346
   1679,   -127.11853,      443.888,   21.9987278
   1680,  -123.782272,      443.888,   36.3457527
   1681,  -118.832321,      443.888,    50.218956
   1682,  -112.333206,      443.888,   63.4374809
   1683,  -104.369667,      443.888,   75.8290024
   1684,  -95.0455017,      443.888,   87.2319717
   1685,  -84.4822769,      443.888,   97.4977417
   1686,   -72.817688,      443.888,   106.492477
   1687,  -60.2038193,      443.888,   114.098923
   1688,  -46.8050957,      443.888,   120.217918
   1689,  -32.7961998,      443.888,   124.769684
   1690,  -18.3597527,      443.888,   127.694885
   1691,  -3.68395901,      443.888,   128.955383
   1692,   11.0398607,      443.888,    128.53476
   1693,   25.6197586,      443.888,   126.438492
   1694,   39.8656654,      443.888,   122.693901
   1695,   53.5918617,      443.888,   117.349808
   1696,      66.6194,      443.888,   110.475876
   1697,   78.7784653,      443.888,   102.161728
   1698,   89.9105225,      443.888,   92.5157394
   1699,   99.8704605,      443.888,   81.6636734
   1700,   108.528435,      443.888,    69.746994
   1701,   115.771576,      443.888,    56.921051
   1702,   121.505455,      443.888,   43.3530617
   1703,   125.655327,      443.888,   29.2198944
   1704,   128.167099,      443.888,   14.7058039
   1705,   129.007996,      443.888,           0.
*Element, type=S4R
   1,   55,    1,   56,  110
   2,    1,    2,   57,   56
   3,    2,    3,   58,   57
   4,    3,    4,   59,   58
   5,    4,    5,   60,   59
   6,    5,    6,   61,   60
   7,    6,    7,   62,   61
   8,    7,    8,   63,   62
   9,    8,    9,   64,   63
  10,    9,   10,   65,   64
  11,   10,   11,   66,   65
  12,   11,   12,   67,   66
  13,   12,   13,   68,   67
  14,   13,   14,   69,   68
  15,   14,   15,   70,   69
  16,   15,   16,   71,   70
  17,   16,   17,   72,   71
  18,   17,   18,   73,   72
  19,   18,   19,   74,   73
  20,   19,   20,   75,   74
  21,   20,   21,   76,   75
  22,   21,   22,   77,   76
  23,   22,   23,   78,   77
  24,   23,   24,   79,   78
  25,   24,   25,   80,   79
  26,   25,   26,   81,   80
  27,   26,   27,   82,   81
  28,   27,   28,   83,   82
  29,   28,   29,   84,   83
  30,   29,   30,   85,   84
  31,   30,   31,   86,   85
  32,   31,   32,   87,   86
  33,   32,   33,   88,   87
  34,   33,   34,   89,   88
  35,   34,   35,   90,   89
  36,   35,   36,   91,   90
  37,   36,   37,   92,   91
  38,   37,   38,   93,   92
  39,   38,   39,   94,   93
  40,   39,   40,   95,   94
  41,   40,   41,   96,   95
  42,   41,   42,   97,   96
  43,   42,   43,   98,   97
  44,   43,   44,   99,   98
  45,   44,   45,  100,   99
  46,   45,   46,  101,  100
  47,   46,   47,  102,  101
  48,   47,   48,  103,  102
  49,   48,   49,  104,  103
  50,   49,   50,  105,  104
  51,   50,   51,  106,  105
  52,   51,   52,  107,  106
  53,   52,   53,  108,  107
  54,   53,   54,  109,  108
  55,   54,   55,  110,  109
  56,  110,   56,  111,  165
  57,   56,   57,  112,  111
  58,   57,   58,  113,  112
  59,   58,   59,  114,  113
  60,   59,   60,  115,  114
  61,   60,   61,  116,  115
  62,   61,   62,  117,  116
  63,   62,   63,  118,  117
  64,   63,   64,  119,  118
  65,   64,   65,  120,  119
  66,   65,   66,  121,  120
  67,   66,   67,  122,  121
  68,   67,   68,  123,  122
  69,   68,   69,  124,  123
  70,   69,   70,  125,  124
  71,   70,   71,  126,  125
  72,   71,   72,  127,  126
  73,   72,   73,  128,  127
  74,   73,   74,  129,  128
  75,   74,   75,  130,  129
  76,   75,   76,  131,  130
  77,   76,   77,  132,  131
  78,   77,   78,  133,  132
  79,   78,   79,  134,  133
  80,   79,   80,  135,  134
  81,   80,   81,  136,  135
  82,   81,   82,  137,  136
  83,   82,   83,  138,  137
  84,   83,   84,  139,  138
  85,   84,   85,  140,  139
  86,   85,   86,  141,  140
  87,   86,   87,  142,  141
  88,   87,   88,  143,  142
  89,   88,   89,  144,  143
  90,   89,   90,  145,  144
  91,   90,   91,  146,  145
  92,   91,   92,  147,  146
  93,   92,   93,  148,  147
  94,   93,   94,  149,  148
  95,   94,   95,  150,  149
  96,   95,   96,  151,  150
  97,   96,   97,  152,  151
  98,   97,   98,  153,  152
  99,   98,   99,  154,  153
 100,   99,  100,  155,  154
 101,  100,  101,  156,  155
 102,  101,  102,  157,  156
 103,  102,  103,  158,  157
 104,  103,  104,  159,  158
 105,  104,  105,  160,  159
 106,  105,  106,  161,  160
 107,  106,  107,  162,  161
 108,  107,  108,  163,  162
 109,  108,  109,  164,  163
 110,  109,  110,  165,  164
 111,  165,  111,  166,  220
 112,  111,  112,  167,  166
 113,  112,  113,  168,  167
 114,  113,  114,  169,  168
 115,  114,  115,  170,  169
 116,  115,  116,  171,  170
 117,  116,  117,  172,  171
 118,  117,  118,  173,  172
 119,  118,  119,  174,  173
 120,  119,  120,  175,  174
 121,  120,  121,  176,  175
 122,  121,  122,  177,  176
 123,  122,  123,  178,  177
 124,  123,  124,  179,  178
 125,  124,  125,  180,  179
 126,  125,  126,  181,  180
 127,  126,  127,  182,  181
 128,  127,  128,  183,  182
 129,  128,  129,  184,  183
 130,  129,  130,  185,  184
 131,  130,  131,  186,  185
 132,  131,  132,  187,  186
 133,  132,  133,  188,  187
 134,  133,  134,  189,  188
 135,  134,  135,  190,  189
 136,  135,  136,  191,  190
 137,  136,  137,  192,  191
 138,  137,  138,  193,  192
 139,  138,  139,  194,  193
 140,  139,  140,  195,  194
 141,  140,  141,  196,  195
 142,  141,  142,  197,  196
 143,  142,  143,  198,  197
 144,  143,  144,  199,  198
 145,  144,  145,  200,  199
 146,  145,  146,  201,  200
 147,  146,  147,  202,  201
 148,  147,  148,  203,  202
 149,  148,  149,  204,  203
 150,  149,  150,  205,  204
 151,  150,  151,  206,  205
 152,  151,  152,  207,  206
 153,  152,  153,  208,  207
 154,  153,  154,  209,  208
 155,  154,  155,  210,  209
 156,  155,  156,  211,  210
 157,  156,  157,  212,  211
 158,  157,  158,  213,  212
 159,  158,  159,  214,  213
 160,  159,  160,  215,  214
 161,  160,  161,  216,  215
 162,  161,  162,  217,  216
 163,  162,  163,  218,  217
 164,  163,  164,  219,  218
 165,  164,  165,  220,  219
 166,  220,  166,  221,  275
 167,  166,  167,  222,  221
 168,  167,  168,  223,  222
 169,  168,  169,  224,  223
 170,  169,  170,  225,  224
 171,  170,  171,  226,  225
 172,  171,  172,  227,  226
 173,  172,  173,  228,  227
 174,  173,  174,  229,  228
 175,  174,  175,  230,  229
 176,  175,  176,  231,  230
 177,  176,  177,  232,  231
 178,  177,  178,  233,  232
 179,  178,  179,  234,  233
 180,  179,  180,  235,  234
 181,  180,  181,  236,  235
 182,  181,  182,  237,  236
 183,  182,  183,  238,  237
 184,  183,  184,  239,  238
 185,  184,  185,  240,  239
 186,  185,  186,  241,  240
 187,  186,  187,  242,  241
 188,  187,  188,  243,  242
 189,  188,  189,  244,  243
 190,  189,  190,  245,  244
 191,  190,  191,  246,  245
 192,  191,  192,  247,  246
 193,  192,  193,  248,  247
 194,  193,  194,  249,  248
 195,  194,  195,  250,  249
 196,  195,  196,  251,  250
 197,  196,  197,  252,  251
 198,  197,  198,  253,  252
 199,  198,  199,  254,  253
 200,  199,  200,  255,  254
 201,  200,  201,  256,  255
 202,  201,  202,  257,  256
 203,  202,  203,  258,  257
 204,  203,  204,  259,  258
 205,  204,  205,  260,  259
 206,  205,  206,  261,  260
 207,  206,  207,  262,  261
 208,  207,  208,  263,  262
 209,  208,  209,  264,  263
 210,  209,  210,  265,  264
 211,  210,  211,  266,  265
 212,  211,  212,  267,  266
 213,  212,  213,  268,  267
 214,  213,  214,  269,  268
 215,  214,  215,  270,  269
 216,  215,  216,  271,  270
 217,  216,  217,  272,  271
 218,  217,  218,  273,  272
 219,  218,  219,  274,  273
 220,  219,  220,  275,  274
 221,  275,  221,  276,  330
 222,  221,  222,  277,  276
 223,  222,  223,  278,  277
 224,  223,  224,  279,  278
 225,  224,  225,  280,  279
 226,  225,  226,  281,  280
 227,  226,  227,  282,  281
 228,  227,  228,  283,  282
 229,  228,  229,  284,  283
 230,  229,  230,  285,  284
 231,  230,  231,  286,  285
 232,  231,  232,  287,  286
 233,  232,  233,  288,  287
 234,  233,  234,  289,  288
 235,  234,  235,  290,  289
 236,  235,  236,  291,  290
 237,  236,  237,  292,  291
 238,  237,  238,  293,  292
 239,  238,  239,  294,  293
 240,  239,  240,  295,  294
 241,  240,  241,  296,  295
 242,  241,  242,  297,  296
 243,  242,  243,  298,  297
 244,  243,  244,  299,  298
 245,  244,  245,  300,  299
 246,  245,  246,  301,  300
 247,  246,  247,  302,  301
 248,  247,  248,  303,  302
 249,  248,  249,  304,  303
 250,  249,  250,  305,  304
 251,  250,  251,  306,  305
 252,  251,  252,  307,  306
 253,  252,  253,  308,  307
 254,  253,  254,  309,  308
 255,  254,  255,  310,  309
 256,  255,  256,  311,  310
 257,  256,  257,  312,  311
 258,  257,  258,  313,  312
 259,  258,  259,  314,  313
 260,  259,  260,  315,  314
 261,  260,  261,  316,  315
 262,  261,  262,  317,  316
 263,  262,  263,  318,  317
 264,  263,  264,  319,  318
 265,  264,  265,  320,  319
 266,  265,  266,  321,  320
 267,  266,  267,  322,  321
 268,  267,  268,  323,  322
 269,  268,  269,  324,  323
 270,  269,  270,  325,  324
 271,  270,  271,  326,  325
 272,  271,  272,  327,  326
 273,  272,  273,  328,  327
 274,  273,  274,  329,  328
 275,  274,  275,  330,  329
 276,  330,  276,  331,  385
 277,  276,  277,  332,  331
 278,  277,  278,  333,  332
 279,  278,  279,  334,  333
 280,  279,  280,  335,  334
 281,  280,  281,  336,  335
 282,  281,  282,  337,  336
 283,  282,  283,  338,  337
 284,  283,  284,  339,  338
 285,  284,  285,  340,  339
 286,  285,  286,  341,  340
 287,  286,  287,  342,  341
 288,  287,  288,  343,  342
 289,  288,  289,  344,  343
 290,  289,  290,  345,  344
 291,  290,  291,  346,  345
 292,  291,  292,  347,  346
 293,  292,  293,  348,  347
 294,  293,  294,  349,  348
 295,  294,  295,  350,  349
 296,  295,  296,  351,  350
 297,  296,  297,  352,  351
 298,  297,  298,  353,  352
 299,  298,  299,  354,  353
 300,  299,  300,  355,  354
 301,  300,  301,  356,  355
 302,  301,  302,  357,  356
 303,  302,  303,  358,  357
 304,  303,  304,  359,  358
 305,  304,  305,  360,  359
 306,  305,  306,  361,  360
 307,  306,  307,  362,  361
 308,  307,  308,  363,  362
 309,  308,  309,  364,  363
 310,  309,  310,  365,  364
 311,  310,  311,  366,  365
 312,  311,  312,  367,  366
 313,  312,  313,  368,  367
 314,  313,  314,  369,  368
 315,  314,  315,  370,  369
 316,  315,  316,  371,  370
 317,  316,  317,  372,  371
 318,  317,  318,  373,  372
 319,  318,  319,  374,  373
 320,  319,  320,  375,  374
 321,  320,  321,  376,  375
 322,  321,  322,  377,  376
 323,  322,  323,  378,  377
 324,  323,  324,  379,  378
 325,  324,  325,  380,  379
 326,  325,  326,  381,  380
 327,  326,  327,  382,  381
 328,  327,  328,  383,  382
 329,  328,  329,  384,  383
 330,  329,  330,  385,  384
 331,  385,  331,  386,  440
 332,  331,  332,  387,  386
 333,  332,  333,  388,  387
 334,  333,  334,  389,  388
 335,  334,  335,  390,  389
 336,  335,  336,  391,  390
 337,  336,  337,  392,  391
 338,  337,  338,  393,  392
 339,  338,  339,  394,  393
 340,  339,  340,  395,  394
 341,  340,  341,  396,  395
 342,  341,  342,  397,  396
 343,  342,  343,  398,  397
 344,  343,  344,  399,  398
 345,  344,  345,  400,  399
 346,  345,  346,  401,  400
 347,  346,  347,  402,  401
 348,  347,  348,  403,  402
 349,  348,  349,  404,  403
 350,  349,  350,  405,  404
 351,  350,  351,  406,  405
 352,  351,  352,  407,  406
 353,  352,  353,  408,  407
 354,  353,  354,  409,  408
 355,  354,  355,  410,  409
 356,  355,  356,  411,  410
 357,  356,  357,  412,  411
 358,  357,  358,  413,  412
 359,  358,  359,  414,  413
 360,  359,  360,  415,  414
 361,  360,  361,  416,  415
 362,  361,  362,  417,  416
 363,  362,  363,  418,  417
 364,  363,  364,  419,  418
 365,  364,  365,  420,  419
 366,  365,  366,  421,  420
 367,  366,  367,  422,  421
 368,  367,  368,  423,  422
 369,  368,  369,  424,  423
 370,  369,  370,  425,  424
 371,  370,  371,  426,  425
 372,  371,  372,  427,  426
 373,  372,  373,  428,  427
 374,  373,  374,  429,  428
 375,  374,  375,  430,  429
 376,  375,  376,  431,  430
 377,  376,  377,  432,  431
 378,  377,  378,  433,  432
 379,  378,  379,  434,  433
 380,  379,  380,  435,  434
 381,  380,  381,  436,  435
 382,  381,  382,  437,  436
 383,  382,  383,  438,  437
 384,  383,  384,  439,  438
 385,  384,  385,  440,  439
 386,  440,  386,  441,  495
 387,  386,  387,  442,  441
 388,  387,  388,  443,  442
 389,  388,  389,  444,  443
 390,  389,  390,  445,  444
 391,  390,  391,  446,  445
 392,  391,  392,  447,  446
 393,  392,  393,  448,  447
 394,  393,  394,  449,  448
 395,  394,  395,  450,  449
 396,  395,  396,  451,  450
 397,  396,  397,  452,  451
 398,  397,  398,  453,  452
 399,  398,  399,  454,  453
 400,  399,  400,  455,  454
 401,  400,  401,  456,  455
 402,  401,  402,  457,  456
 403,  402,  403,  458,  457
 404,  403,  404,  459,  458
 405,  404,  405,  460,  459
 406,  405,  406,  461,  460
 407,  406,  407,  462,  461
 408,  407,  408,  463,  462
 409,  408,  409,  464,  463
 410,  409,  410,  465,  464
 411,  410,  411,  466,  465
 412,  411,  412,  467,  466
 413,  412,  413,  468,  467
 414,  413,  414,  469,  468
 415,  414,  415,  470,  469
 416,  415,  416,  471,  470
 417,  416,  417,  472,  471
 418,  417,  418,  473,  472
 419,  418,  419,  474,  473
 420,  419,  420,  475,  474
 421,  420,  421,  476,  475
 422,  421,  422,  477,  476
 423,  422,  423,  478,  477
 424,  423,  424,  479,  478
 425,  424,  425,  480,  479
 426,  425,  426,  481,  480
 427,  426,  427,  482,  481
 428,  427,  428,  483,  482
 429,  428,  429,  484,  483
 430,  429,  430,  485,  484
 431,  430,  431,  486,  485
 432,  431,  432,  487,  486
 433,  432,  433,  488,  487
 434,  433,  434,  489,  488
 435,  434,  435,  490,  489
 436,  435,  436,  491,  490
 437,  436,  437,  492,  491
 438,  437,  438,  493,  492
 439,  438,  439,  494,  493
 440,  439,  440,  495,  494
 441,  495,  441,  496,  550
 442,  441,  442,  497,  496
 443,  442,  443,  498,  497
 444,  443,  444,  499,  498
 445,  444,  445,  500,  499
 446,  445,  446,  501,  500
 447,  446,  447,  502,  501
 448,  447,  448,  503,  502
 449,  448,  449,  504,  503
 450,  449,  450,  505,  504
 451,  450,  451,  506,  505
 452,  451,  452,  507,  506
 453,  452,  453,  508,  507
 454,  453,  454,  509,  508
 455,  454,  455,  510,  509
 456,  455,  456,  511,  510
 457,  456,  457,  512,  511
 458,  457,  458,  513,  512
 459,  458,  459,  514,  513
 460,  459,  460,  515,  514
 461,  460,  461,  516,  515
 462,  461,  462,  517,  516
 463,  462,  463,  518,  517
 464,  463,  464,  519,  518
 465,  464,  465,  520,  519
 466,  465,  466,  521,  520
 467,  466,  467,  522,  521
 468,  467,  468,  523,  522
 469,  468,  469,  524,  523
 470,  469,  470,  525,  524
 471,  470,  471,  526,  525
 472,  471,  472,  527,  526
 473,  472,  473,  528,  527
 474,  473,  474,  529,  528
 475,  474,  475,  530,  529
 476,  475,  476,  531,  530
 477,  476,  477,  532,  531
 478,  477,  478,  533,  532
 479,  478,  479,  534,  533
 480,  479,  480,  535,  534
 481,  480,  481,  536,  535
 482,  481,  482,  537,  536
 483,  482,  483,  538,  537
 484,  483,  484,  539,  538
 485,  484,  485,  540,  539
 486,  485,  486,  541,  540
 487,  486,  487,  542,  541
 488,  487,  488,  543,  542
 489,  488,  489,  544,  543
 490,  489,  490,  545,  544
 491,  490,  491,  546,  545
 492,  491,  492,  547,  546
 493,  492,  493,  548,  547
 494,  493,  494,  549,  548
 495,  494,  495,  550,  549
 496,  550,  496,  551,  605
 497,  496,  497,  552,  551
 498,  497,  498,  553,  552
 499,  498,  499,  554,  553
 500,  499,  500,  555,  554
 501,  500,  501,  556,  555
 502,  501,  502,  557,  556
 503,  502,  503,  558,  557
 504,  503,  504,  559,  558
 505,  504,  505,  560,  559
 506,  505,  506,  561,  560
 507,  506,  507,  562,  561
 508,  507,  508,  563,  562
 509,  508,  509,  564,  563
 510,  509,  510,  565,  564
 511,  510,  511,  566,  565
 512,  511,  512,  567,  566
 513,  512,  513,  568,  567
 514,  513,  514,  569,  568
 515,  514,  515,  570,  569
 516,  515,  516,  571,  570
 517,  516,  517,  572,  571
 518,  517,  518,  573,  572
 519,  518,  519,  574,  573
 520,  519,  520,  575,  574
 521,  520,  521,  576,  575
 522,  521,  522,  577,  576
 523,  522,  523,  578,  577
 524,  523,  524,  579,  578
 525,  524,  525,  580,  579
 526,  525,  526,  581,  580
 527,  526,  527,  582,  581
 528,  527,  528,  583,  582
 529,  528,  529,  584,  583
 530,  529,  530,  585,  584
 531,  530,  531,  586,  585
 532,  531,  532,  587,  586
 533,  532,  533,  588,  587
 534,  533,  534,  589,  588
 535,  534,  535,  590,  589
 536,  535,  536,  591,  590
 537,  536,  537,  592,  591
 538,  537,  538,  593,  592
 539,  538,  539,  594,  593
 540,  539,  540,  595,  594
 541,  540,  541,  596,  595
 542,  541,  542,  597,  596
 543,  542,  543,  598,  597
 544,  543,  544,  599,  598
 545,  544,  545,  600,  599
 546,  545,  546,  601,  600
 547,  546,  547,  602,  601
 548,  547,  548,  603,  602
 549,  548,  549,  604,  603
 550,  549,  550,  605,  604
 551,  605,  551,  606,  660
 552,  551,  552,  607,  606
 553,  552,  553,  608,  607
 554,  553,  554,  609,  608
 555,  554,  555,  610,  609
 556,  555,  556,  611,  610
 557,  556,  557,  612,  611
 558,  557,  558,  613,  612
 559,  558,  559,  614,  613
 560,  559,  560,  615,  614
 561,  560,  561,  616,  615
 562,  561,  562,  617,  616
 563,  562,  563,  618,  617
 564,  563,  564,  619,  618
 565,  564,  565,  620,  619
 566,  565,  566,  621,  620
 567,  566,  567,  622,  621
 568,  567,  568,  623,  622
 569,  568,  569,  624,  623
 570,  569,  570,  625,  624
 571,  570,  571,  626,  625
 572,  571,  572,  627,  626
 573,  572,  573,  628,  627
 574,  573,  574,  629,  628
 575,  574,  575,  630,  629
 576,  575,  576,  631,  630
 577,  576,  577,  632,  631
 578,  577,  578,  633,  632
 579,  578,  579,  634,  633
 580,  579,  580,  635,  634
 581,  580,  581,  636,  635
 582,  581,  582,  637,  636
 583,  582,  583,  638,  637
 584,  583,  584,  639,  638
 585,  584,  585,  640,  639
 586,  585,  586,  641,  640
 587,  586,  587,  642,  641
 588,  587,  588,  643,  642
 589,  588,  589,  644,  643
 590,  589,  590,  645,  644
 591,  590,  591,  646,  645
 592,  591,  592,  647,  646
 593,  592,  593,  648,  647
 594,  593,  594,  649,  648
 595,  594,  595,  650,  649
 596,  595,  596,  651,  650
 597,  596,  597,  652,  651
 598,  597,  598,  653,  652
 599,  598,  599,  654,  653
 600,  599,  600,  655,  654
 601,  600,  601,  656,  655
 602,  601,  602,  657,  656
 603,  602,  603,  658,  657
 604,  603,  604,  659,  658
 605,  604,  605,  660,  659
 606,  660,  606,  661,  715
 607,  606,  607,  662,  661
 608,  607,  608,  663,  662
 609,  608,  609,  664,  663
 610,  609,  610,  665,  664
 611,  610,  611,  666,  665
 612,  611,  612,  667,  666
 613,  612,  613,  668,  667
 614,  613,  614,  669,  668
 615,  614,  615,  670,  669
 616,  615,  616,  671,  670
 617,  616,  617,  672,  671
 618,  617,  618,  673,  672
 619,  618,  619,  674,  673
 620,  619,  620,  675,  674
 621,  620,  621,  676,  675
 622,  621,  622,  677,  676
 623,  622,  623,  678,  677
 624,  623,  624,  679,  678
 625,  624,  625,  680,  679
 626,  625,  626,  681,  680
 627,  626,  627,  682,  681
 628,  627,  628,  683,  682
 629,  628,  629,  684,  683
 630,  629,  630,  685,  684
 631,  630,  631,  686,  685
 632,  631,  632,  687,  686
 633,  632,  633,  688,  687
 634,  633,  634,  689,  688
 635,  634,  635,  690,  689
 636,  635,  636,  691,  690
 637,  636,  637,  692,  691
 638,  637,  638,  693,  692
 639,  638,  639,  694,  693
 640,  639,  640,  695,  694
 641,  640,  641,  696,  695
 642,  641,  642,  697,  696
 643,  642,  643,  698,  697
 644,  643,  644,  699,  698
 645,  644,  645,  700,  699
 646,  645,  646,  701,  700
 647,  646,  647,  702,  701
 648,  647,  648,  703,  702
 649,  648,  649,  704,  703
 650,  649,  650,  705,  704
 651,  650,  651,  706,  705
 652,  651,  652,  707,  706
 653,  652,  653,  708,  707
 654,  653,  654,  709,  708
 655,  654,  655,  710,  709
 656,  655,  656,  711,  710
 657,  656,  657,  712,  711
 658,  657,  658,  713,  712
 659,  658,  659,  714,  713
 660,  659,  660,  715,  714
 661,  715,  661,  716,  770
 662,  661,  662,  717,  716
 663,  662,  663,  718,  717
 664,  663,  664,  719,  718
 665,  664,  665,  720,  719
 666,  665,  666,  721,  720
 667,  666,  667,  722,  721
 668,  667,  668,  723,  722
 669,  668,  669,  724,  723
 670,  669,  670,  725,  724
 671,  670,  671,  726,  725
 672,  671,  672,  727,  726
 673,  672,  673,  728,  727
 674,  673,  674,  729,  728
 675,  674,  675,  730,  729
 676,  675,  676,  731,  730
 677,  676,  677,  732,  731
 678,  677,  678,  733,  732
 679,  678,  679,  734,  733
 680,  679,  680,  735,  734
 681,  680,  681,  736,  735
 682,  681,  682,  737,  736
 683,  682,  683,  738,  737
 684,  683,  684,  739,  738
 685,  684,  685,  740,  739
 686,  685,  686,  741,  740
 687,  686,  687,  742,  741
 688,  687,  688,  743,  742
 689,  688,  689,  744,  743
 690,  689,  690,  745,  744
 691,  690,  691,  746,  745
 692,  691,  692,  747,  746
 693,  692,  693,  748,  747
 694,  693,  694,  749,  748
 695,  694,  695,  750,  749
 696,  695,  696,  751,  750
 697,  696,  697,  752,  751
 698,  697,  698,  753,  752
 699,  698,  699,  754,  753
 700,  699,  700,  755,  754
 701,  700,  701,  756,  755
 702,  701,  702,  757,  756
 703,  702,  703,  758,  757
 704,  703,  704,  759,  758
 705,  704,  705,  760,  759
 706,  705,  706,  761,  760
 707,  706,  707,  762,  761
 708,  707,  708,  763,  762
 709,  708,  709,  764,  763
 710,  709,  710,  765,  764
 711,  710,  711,  766,  765
 712,  711,  712,  767,  766
 713,  712,  713,  768,  767
 714,  713,  714,  769,  768
 715,  714,  715,  770,  769
 716,  770,  716,  771,  825
 717,  716,  717,  772,  771
 718,  717,  718,  773,  772
 719,  718,  719,  774,  773
 720,  719,  720,  775,  774
 721,  720,  721,  776,  775
 722,  721,  722,  777,  776
 723,  722,  723,  778,  777
 724,  723,  724,  779,  778
 725,  724,  725,  780,  779
 726,  725,  726,  781,  780
 727,  726,  727,  782,  781
 728,  727,  728,  783,  782
 729,  728,  729,  784,  783
 730,  729,  730,  785,  784
 731,  730,  731,  786,  785
 732,  731,  732,  787,  786
 733,  732,  733,  788,  787
 734,  733,  734,  789,  788
 735,  734,  735,  790,  789
 736,  735,  736,  791,  790
 737,  736,  737,  792,  791
 738,  737,  738,  793,  792
 739,  738,  739,  794,  793
 740,  739,  740,  795,  794
 741,  740,  741,  796,  795
 742,  741,  742,  797,  796
 743,  742,  743,  798,  797
 744,  743,  744,  799,  798
 745,  744,  745,  800,  799
 746,  745,  746,  801,  800
 747,  746,  747,  802,  801
 748,  747,  748,  803,  802
 749,  748,  749,  804,  803
 750,  749,  750,  805,  804
 751,  750,  751,  806,  805
 752,  751,  752,  807,  806
 753,  752,  753,  808,  807
 754,  753,  754,  809,  808
 755,  754,  755,  810,  809
 756,  755,  756,  811,  810
 757,  756,  757,  812,  811
 758,  757,  758,  813,  812
 759,  758,  759,  814,  813
 760,  759,  760,  815,  814
 761,  760,  761,  816,  815
 762,  761,  762,  817,  816
 763,  762,  763,  818,  817
 764,  763,  764,  819,  818
 765,  764,  765,  820,  819
 766,  765,  766,  821,  820
 767,  766,  767,  822,  821
 768,  767,  768,  823,  822
 769,  768,  769,  824,  823
 770,  769,  770,  825,  824
 771,  825,  771,  826,  880
 772,  771,  772,  827,  826
 773,  772,  773,  828,  827
 774,  773,  774,  829,  828
 775,  774,  775,  830,  829
 776,  775,  776,  831,  830
 777,  776,  777,  832,  831
 778,  777,  778,  833,  832
 779,  778,  779,  834,  833
 780,  779,  780,  835,  834
 781,  780,  781,  836,  835
 782,  781,  782,  837,  836
 783,  782,  783,  838,  837
 784,  783,  784,  839,  838
 785,  784,  785,  840,  839
 786,  785,  786,  841,  840
 787,  786,  787,  842,  841
 788,  787,  788,  843,  842
 789,  788,  789,  844,  843
 790,  789,  790,  845,  844
 791,  790,  791,  846,  845
 792,  791,  792,  847,  846
 793,  792,  793,  848,  847
 794,  793,  794,  849,  848
 795,  794,  795,  850,  849
 796,  795,  796,  851,  850
 797,  796,  797,  852,  851
 798,  797,  798,  853,  852
 799,  798,  799,  854,  853
 800,  799,  800,  855,  854
 801,  800,  801,  856,  855
 802,  801,  802,  857,  856
 803,  802,  803,  858,  857
 804,  803,  804,  859,  858
 805,  804,  805,  860,  859
 806,  805,  806,  861,  860
 807,  806,  807,  862,  861
 808,  807,  808,  863,  862
 809,  808,  809,  864,  863
 810,  809,  810,  865,  864
 811,  810,  811,  866,  865
 812,  811,  812,  867,  866
 813,  812,  813,  868,  867
 814,  813,  814,  869,  868
 815,  814,  815,  870,  869
 816,  815,  816,  871,  870
 817,  816,  817,  872,  871
 818,  817,  818,  873,  872
 819,  818,  819,  874,  873
 820,  819,  820,  875,  874
 821,  820,  821,  876,  875
 822,  821,  822,  877,  876
 823,  822,  823,  878,  877
 824,  823,  824,  879,  878
 825,  824,  825,  880,  879
 826,  880,  826,  881,  935
 827,  826,  827,  882,  881
 828,  827,  828,  883,  882
 829,  828,  829,  884,  883
 830,  829,  830,  885,  884
 831,  830,  831,  886,  885
 832,  831,  832,  887,  886
 833,  832,  833,  888,  887
 834,  833,  834,  889,  888
 835,  834,  835,  890,  889
 836,  835,  836,  891,  890
 837,  836,  837,  892,  891
 838,  837,  838,  893,  892
 839,  838,  839,  894,  893
 840,  839,  840,  895,  894
 841,  840,  841,  896,  895
 842,  841,  842,  897,  896
 843,  842,  843,  898,  897
 844,  843,  844,  899,  898
 845,  844,  845,  900,  899
 846,  845,  846,  901,  900
 847,  846,  847,  902,  901
 848,  847,  848,  903,  902
 849,  848,  849,  904,  903
 850,  849,  850,  905,  904
 851,  850,  851,  906,  905
 852,  851,  852,  907,  906
 853,  852,  853,  908,  907
 854,  853,  854,  909,  908
 855,  854,  855,  910,  909
 856,  855,  856,  911,  910
 857,  856,  857,  912,  911
 858,  857,  858,  913,  912
 859,  858,  859,  914,  913
 860,  859,  860,  915,  914
 861,  860,  861,  916,  915
 862,  861,  862,  917,  916
 863,  862,  863,  918,  917
 864,  863,  864,  919,  918
 865,  864,  865,  920,  919
 866,  865,  866,  921,  920
 867,  866,  867,  922,  921
 868,  867,  868,  923,  922
 869,  868,  869,  924,  923
 870,  869,  870,  925,  924
 871,  870,  871,  926,  925
 872,  871,  872,  927,  926
 873,  872,  873,  928,  927
 874,  873,  874,  929,  928
 875,  874,  875,  930,  929
 876,  875,  876,  931,  930
 877,  876,  877,  932,  931
 878,  877,  878,  933,  932
 879,  878,  879,  934,  933
 880,  879,  880,  935,  934
 881,  935,  881,  936,  990
 882,  881,  882,  937,  936
 883,  882,  883,  938,  937
 884,  883,  884,  939,  938
 885,  884,  885,  940,  939
 886,  885,  886,  941,  940
 887,  886,  887,  942,  941
 888,  887,  888,  943,  942
 889,  888,  889,  944,  943
 890,  889,  890,  945,  944
 891,  890,  891,  946,  945
 892,  891,  892,  947,  946
 893,  892,  893,  948,  947
 894,  893,  894,  949,  948
 895,  894,  895,  950,  949
 896,  895,  896,  951,  950
 897,  896,  897,  952,  951
 898,  897,  898,  953,  952
 899,  898,  899,  954,  953
 900,  899,  900,  955,  954
 901,  900,  901,  956,  955
 902,  901,  902,  957,  956
 903,  902,  903,  958,  957
 904,  903,  904,  959,  958
 905,  904,  905,  960,  959
 906,  905,  906,  961,  960
 907,  906,  907,  962,  961
 908,  907,  908,  963,  962
 909,  908,  909,  964,  963
 910,  909,  910,  965,  964
 911,  910,  911,  966,  965
 912,  911,  912,  967,  966
 913,  912,  913,  968,  967
 914,  913,  914,  969,  968
 915,  914,  915,  970,  969
 916,  915,  916,  971,  970
 917,  916,  917,  972,  971
 918,  917,  918,  973,  972
 919,  918,  919,  974,  973
 920,  919,  920,  975,  974
 921,  920,  921,  976,  975
 922,  921,  922,  977,  976
 923,  922,  923,  978,  977
 924,  923,  924,  979,  978
 925,  924,  925,  980,  979
 926,  925,  926,  981,  980
 927,  926,  927,  982,  981
 928,  927,  928,  983,  982
 929,  928,  929,  984,  983
 930,  929,  930,  985,  984
 931,  930,  931,  986,  985
 932,  931,  932,  987,  986
 933,  932,  933,  988,  987
 934,  933,  934,  989,  988
 935,  934,  935,  990,  989
 936,  990,  936,  991, 1045
 937,  936,  937,  992,  991
 938,  937,  938,  993,  992
 939,  938,  939,  994,  993
 940,  939,  940,  995,  994
 941,  940,  941,  996,  995
 942,  941,  942,  997,  996
 943,  942,  943,  998,  997
 944,  943,  944,  999,  998
 945,  944,  945, 1000,  999
 946,  945,  946, 1001, 1000
 947,  946,  947, 1002, 1001
 948,  947,  948, 1003, 1002
 949,  948,  949, 1004, 1003
 950,  949,  950, 1005, 1004
 951,  950,  951, 1006, 1005
 952,  951,  952, 1007, 1006
 953,  952,  953, 1008, 1007
 954,  953,  954, 1009, 1008
 955,  954,  955, 1010, 1009
 956,  955,  956, 1011, 1010
 957,  956,  957, 1012, 1011
 958,  957,  958, 1013, 1012
 959,  958,  959, 1014, 1013
 960,  959,  960, 1015, 1014
 961,  960,  961, 1016, 1015
 962,  961,  962, 1017, 1016
 963,  962,  963, 1018, 1017
 964,  963,  964, 1019, 1018
 965,  964,  965, 1020, 1019
 966,  965,  966, 1021, 1020
 967,  966,  967, 1022, 1021
 968,  967,  968, 1023, 1022
 969,  968,  969, 1024, 1023
 970,  969,  970, 1025, 1024
 971,  970,  971, 1026, 1025
 972,  971,  972, 1027, 1026
 973,  972,  973, 1028, 1027
 974,  973,  974, 1029, 1028
 975,  974,  975, 1030, 1029
 976,  975,  976, 1031, 1030
 977,  976,  977, 1032, 1031
 978,  977,  978, 1033, 1032
 979,  978,  979, 1034, 1033
 980,  979,  980, 1035, 1034
 981,  980,  981, 1036, 1035
 982,  981,  982, 1037, 1036
 983,  982,  983, 1038, 1037
 984,  983,  984, 1039, 1038
 985,  984,  985, 1040, 1039
 986,  985,  986, 1041, 1040
 987,  986,  987, 1042, 1041
 988,  987,  988, 1043, 1042
 989,  988,  989, 1044, 1043
 990,  989,  990, 1045, 1044
 991, 1045,  991, 1046, 1100
 992,  991,  992, 1047, 1046
 993,  992,  993, 1048, 1047
 994,  993,  994, 1049, 1048
 995,  994,  995, 1050, 1049
 996,  995,  996, 1051, 1050
 997,  996,  997, 1052, 1051
 998,  997,  998, 1053, 1052
 999,  998,  999, 1054, 1053
1000,  999, 1000, 1055, 1054
1001, 1000, 1001, 1056, 1055
1002, 1001, 1002, 1057, 1056
1003, 1002, 1003, 1058, 1057
1004, 1003, 1004, 1059, 1058
1005, 1004, 1005, 1060, 1059
1006, 1005, 1006, 1061, 1060
1007, 1006, 1007, 1062, 1061
1008, 1007, 1008, 1063, 1062
1009, 1008, 1009, 1064, 1063
1010, 1009, 1010, 1065, 1064
1011, 1010, 1011, 1066, 1065
1012, 1011, 1012, 1067, 1066
1013, 1012, 1013, 1068, 1067
1014, 1013, 1014, 1069, 1068
1015, 1014, 1015, 1070, 1069
1016, 1015, 1016, 1071, 1070
1017, 1016, 1017, 1072, 1071
1018, 1017, 1018, 1073, 1072
1019, 1018, 1019, 1074, 1073
1020, 1019, 1020, 1075, 1074
1021, 1020, 1021, 1076, 1075
1022, 1021, 1022, 1077, 1076
1023, 1022, 1023, 1078, 1077
1024, 1023, 1024, 1079, 1078
1025, 1024, 1025, 1080, 1079
1026, 1025, 1026, 1081, 1080
1027, 1026, 1027, 1082, 1081
1028, 1027, 1028, 1083, 1082
1029, 1028, 1029, 1084, 1083
1030, 1029, 1030, 1085, 1084
1031, 1030, 1031, 1086, 1085
1032, 1031, 1032, 1087, 1086
1033, 1032, 1033, 1088, 1087
1034, 1033, 1034, 1089, 1088
1035, 1034, 1035, 1090, 1089
1036, 1035, 1036, 1091, 1090
1037, 1036, 1037, 1092, 1091
1038, 1037, 1038, 1093, 1092
1039, 1038, 1039, 1094, 1093
1040, 1039, 1040, 1095, 1094
1041, 1040, 1041, 1096, 1095
1042, 1041, 1042, 1097, 1096
1043, 1042, 1043, 1098, 1097
1044, 1043, 1044, 1099, 1098
1045, 1044, 1045, 1100, 1099
1046, 1100, 1046, 1101, 1155
1047, 1046, 1047, 1102, 1101
1048, 1047, 1048, 1103, 1102
1049, 1048, 1049, 1104, 1103
1050, 1049, 1050, 1105, 1104
1051, 1050, 1051, 1106, 1105
1052, 1051, 1052, 1107, 1106
1053, 1052, 1053, 1108, 1107
1054, 1053, 1054, 1109, 1108
1055, 1054, 1055, 1110, 1109
1056, 1055, 1056, 1111, 1110
1057, 1056, 1057, 1112, 1111
1058, 1057, 1058, 1113, 1112
1059, 1058, 1059, 1114, 1113
1060, 1059, 1060, 1115, 1114
1061, 1060, 1061, 1116, 1115
1062, 1061, 1062, 1117, 1116
1063, 1062, 1063, 1118, 1117
1064, 1063, 1064, 1119, 1118
1065, 1064, 1065, 1120, 1119
1066, 1065, 1066, 1121, 1120
1067, 1066, 1067, 1122, 1121
1068, 1067, 1068, 1123, 1122
1069, 1068, 1069, 1124, 1123
1070, 1069, 1070, 1125, 1124
1071, 1070, 1071, 1126, 1125
1072, 1071, 1072, 1127, 1126
1073, 1072, 1073, 1128, 1127
1074, 1073, 1074, 1129, 1128
1075, 1074, 1075, 1130, 1129
1076, 1075, 1076, 1131, 1130
1077, 1076, 1077, 1132, 1131
1078, 1077, 1078, 1133, 1132
1079, 1078, 1079, 1134, 1133
1080, 1079, 1080, 1135, 1134
1081, 1080, 1081, 1136, 1135
1082, 1081, 1082, 1137, 1136
1083, 1082, 1083, 1138, 1137
1084, 1083, 1084, 1139, 1138
1085, 1084, 1085, 1140, 1139
1086, 1085, 1086, 1141, 1140
1087, 1086, 1087, 1142, 1141
1088, 1087, 1088, 1143, 1142
1089, 1088, 1089, 1144, 1143
1090, 1089, 1090, 1145, 1144
1091, 1090, 1091, 1146, 1145
1092, 1091, 1092, 1147, 1146
1093, 1092, 1093, 1148, 1147
1094, 1093, 1094, 1149, 1148
1095, 1094, 1095, 1150, 1149
1096, 1095, 1096, 1151, 1150
1097, 1096, 1097, 1152, 1151
1098, 1097, 1098, 1153, 1152
1099, 1098, 1099, 1154, 1153
1100, 1099, 1100, 1155, 1154
1101, 1155, 1101, 1156, 1210
1102, 1101, 1102, 1157, 1156
1103, 1102, 1103, 1158, 1157
1104, 1103, 1104, 1159, 1158
1105, 1104, 1105, 1160, 1159
1106, 1105, 1106, 1161, 1160
1107, 1106, 1107, 1162, 1161
1108, 1107, 1108, 1163, 1162
1109, 1108, 1109, 1164, 1163
1110, 1109, 1110, 1165, 1164
1111, 1110, 1111, 1166, 1165
1112, 1111, 1112, 1167, 1166
1113, 1112, 1113, 1168, 1167
1114, 1113, 1114, 1169, 1168
1115, 1114, 1115, 1170, 1169
1116, 1115, 1116, 1171, 1170
1117, 1116, 1117, 1172, 1171
1118, 1117, 1118, 1173, 1172
1119, 1118, 1119, 1174, 1173
1120, 1119, 1120, 1175, 1174
1121, 1120, 1121, 1176, 1175
1122, 1121, 1122, 1177, 1176
1123, 1122, 1123, 1178, 1177
1124, 1123, 1124, 1179, 1178
1125, 1124, 1125, 1180, 1179
1126, 1125, 1126, 1181, 1180
1127, 1126, 1127, 1182, 1181
1128, 1127, 1128, 1183, 1182
1129, 1128, 1129, 1184, 1183
1130, 1129, 1130, 1185, 1184
1131, 1130, 1131, 1186, 1185
1132, 1131, 1132, 1187, 1186
1133, 1132, 1133, 1188, 1187
1134, 1133, 1134, 1189, 1188
1135, 1134, 1135, 1190, 1189
1136, 1135, 1136, 1191, 1190
1137, 1136, 1137, 1192, 1191
1138, 1137, 1138, 1193, 1192
1139, 1138, 1139, 1194, 1193
1140, 1139, 1140, 1195, 1194
1141, 1140, 1141, 1196, 1195
1142, 1141, 1142, 1197, 1196
1143, 1142, 1143, 1198, 1197
1144, 1143, 1144, 1199, 1198
1145, 1144, 1145, 1200, 1199
1146, 1145, 1146, 1201, 1200
1147, 1146, 1147, 1202, 1201
1148, 1147, 1148, 1203, 1202
1149, 1148, 1149, 1204, 1203
1150, 1149, 1150, 1205, 1204
1151, 1150, 1151, 1206, 1205
1152, 1151, 1152, 1207, 1206
1153, 1152, 1153, 1208, 1207
1154, 1153, 1154, 1209, 1208
1155, 1154, 1155, 1210, 1209
1156, 1210, 1156, 1211, 1265
1157, 1156, 1157, 1212, 1211
1158, 1157, 1158, 1213, 1212
1159, 1158, 1159, 1214, 1213
1160, 1159, 1160, 1215, 1214
1161, 1160, 1161, 1216, 1215
1162, 1161, 1162, 1217, 1216
1163, 1162, 1163, 1218, 1217
1164, 1163, 1164, 1219, 1218
1165, 1164, 1165, 1220, 1219
1166, 1165, 1166, 1221, 1220
1167, 1166, 1167, 1222, 1221
1168, 1167, 1168, 1223, 1222
1169, 1168, 1169, 1224, 1223
1170, 1169, 1170, 1225, 1224
1171, 1170, 1171, 1226, 1225
1172, 1171, 1172, 1227, 1226
1173, 1172, 1173, 1228, 1227
1174, 1173, 1174, 1229, 1228
1175, 1174, 1175, 1230, 1229
1176, 1175, 1176, 1231, 1230
1177, 1176, 1177, 1232, 1231
1178, 1177, 1178, 1233, 1232
1179, 1178, 1179, 1234, 1233
1180, 1179, 1180, 1235, 1234
1181, 1180, 1181, 1236, 1235
1182, 1181, 1182, 1237, 1236
1183, 1182, 1183, 1238, 1237
1184, 1183, 1184, 1239, 1238
1185, 1184, 1185, 1240, 1239
1186, 1185, 1186, 1241, 1240
1187, 1186, 1187, 1242, 1241
1188, 1187, 1188, 1243, 1242
1189, 1188, 1189, 1244, 1243
1190, 1189, 1190, 1245, 1244
1191, 1190, 1191, 1246, 1245
1192, 1191, 1192, 1247, 1246
1193, 1192, 1193, 1248, 1247
1194, 1193, 1194, 1249, 1248
1195, 1194, 1195, 1250, 1249
1196, 1195, 1196, 1251, 1250
1197, 1196, 1197, 1252, 1251
1198, 1197, 1198, 1253, 1252
1199, 1198, 1199, 1254, 1253
1200, 1199, 1200, 1255, 1254
1201, 1200, 1201, 1256, 1255
1202, 1201, 1202, 1257, 1256
1203, 1202, 1203, 1258, 1257
1204, 1203, 1204, 1259, 1258
1205, 1204, 1205, 1260, 1259
1206, 1205, 1206, 1261, 1260
1207, 1206, 1207, 1262, 1261
1208, 1207, 1208, 1263, 1262
1209, 1208, 1209, 1264, 1263
1210, 1209, 1210, 1265, 1264
1211, 1265, 1211, 1266, 1320
1212, 1211, 1212, 1267, 1266
1213, 1212, 1213, 1268, 1267
1214, 1213, 1214, 1269, 1268
1215, 1214, 1215, 1270, 1269
1216, 1215, 1216, 1271, 1270
1217, 1216, 1217, 1272, 1271
1218, 1217, 1218, 1273, 1272
1219, 1218, 1219, 1274, 1273
1220, 1219, 1220, 1275, 1274
1221, 1220, 1221, 1276, 1275
1222, 1221, 1222, 1277, 1276
1223, 1222, 1223, 1278, 1277
1224, 1223, 1224, 1279, 1278
1225, 1224, 1225, 1280, 1279
1226, 1225, 1226, 1281, 1280
1227, 1226, 1227, 1282, 1281
1228, 1227, 1228, 1283, 1282
1229, 1228, 1229, 1284, 1283
1230, 1229, 1230, 1285, 1284
1231, 1230, 1231, 1286, 1285
1232, 1231, 1232, 1287, 1286
1233, 1232, 1233, 1288, 1287
1234, 1233, 1234, 1289, 1288
1235, 1234, 1235, 1290, 1289
1236, 1235, 1236, 1291, 1290
1237, 1236, 1237, 1292, 1291
1238, 1237, 1238, 1293, 1292
1239, 1238, 1239, 1294, 1293
1240, 1239, 1240, 1295, 1294
1241, 1240, 1241, 1296, 1295
1242, 1241, 1242, 1297, 1296
1243, 1242, 1243, 1298, 1297
1244, 1243, 1244, 1299, 1298
1245, 1244, 1245, 1300, 1299
1246, 1245, 1246, 1301, 1300
1247, 1246, 1247, 1302, 1301
1248, 1247, 1248, 1303, 1302
1249, 1248, 1249, 1304, 1303
1250, 1249, 1250, 1305, 1304
1251, 1250, 1251, 1306, 1305
1252, 1251, 1252, 1307, 1306
1253, 1252, 1253, 1308, 1307
1254, 1253, 1254, 1309, 1308
1255, 1254, 1255, 1310, 1309
1256, 1255, 1256, 1311, 1310
1257, 1256, 1257, 1312, 1311
1258, 1257, 1258, 1313, 1312
1259, 1258, 1259, 1314, 1313
1260, 1259, 1260, 1315, 1314
1261, 1260, 1261, 1316, 1315
1262, 1261, 1262, 1317, 1316
1263, 1262, 1263, 1318, 1317
1264, 1263, 1264, 1319, 1318
1265, 1264, 1265, 1320, 1319
1266, 1320, 1266, 1321, 1375
1267, 1266, 1267, 1322, 1321
1268, 1267, 1268, 1323, 1322
1269, 1268, 1269, 1324, 1323
1270, 1269, 1270, 1325, 1324
1271, 1270, 1271, 1326, 1325
1272, 1271, 1272, 1327, 1326
1273, 1272, 1273, 1328, 1327
1274, 1273, 1274, 1329, 1328
1275, 1274, 1275, 1330, 1329
1276, 1275, 1276, 1331, 1330
1277, 1276, 1277, 1332, 1331
1278, 1277, 1278, 1333, 1332
1279, 1278, 1279, 1334, 1333
1280, 1279, 1280, 1335, 1334
1281, 1280, 1281, 1336, 1335
1282, 1281, 1282, 1337, 1336
1283, 1282, 1283, 1338, 1337
1284, 1283, 1284, 1339, 1338
1285, 1284, 1285, 1340, 1339
1286, 1285, 1286, 1341, 1340
1287, 1286, 1287, 1342, 1341
1288, 1287, 1288, 1343, 1342
1289, 1288, 1289, 1344, 1343
1290, 1289, 1290, 1345, 1344
1291, 1290, 1291, 1346, 1345
1292, 1291, 1292, 1347, 1346
1293, 1292, 1293, 1348, 1347
1294, 1293, 1294, 1349, 1348
1295, 1294, 1295, 1350, 1349
1296, 1295, 1296, 1351, 1350
1297, 1296, 1297, 1352, 1351
1298, 1297, 1298, 1353, 1352
1299, 1298, 1299, 1354, 1353
1300, 1299, 1300, 1355, 1354
1301, 1300, 1301, 1356, 1355
1302, 1301, 1302, 1357, 1356
1303, 1302, 1303, 1358, 1357
1304, 1303, 1304, 1359, 1358
1305, 1304, 1305, 1360, 1359
1306, 1305, 1306, 1361, 1360
1307, 1306, 1307, 1362, 1361
1308, 1307, 1308, 1363, 1362
1309, 1308, 1309, 1364, 1363
1310, 1309, 1310, 1365, 1364
1311, 1310, 1311, 1366, 1365
1312, 1311, 1312, 1367, 1366
1313, 1312, 1313, 1368, 1367
1314, 1313, 1314, 1369, 1368
1315, 1314, 1315, 1370, 1369
1316, 1315, 1316, 1371, 1370
1317, 1316, 1317, 1372, 1371
1318, 1317, 1318, 1373, 1372
1319, 1318, 1319, 1374, 1373
1320, 1319, 1320, 1375, 1374
1321, 1375, 1321, 1376, 1430
1322, 1321, 1322, 1377, 1376
1323, 1322, 1323, 1378, 1377
1324, 1323, 1324, 1379, 1378
1325, 1324, 1325, 1380, 1379
1326, 1325, 1326, 1381, 1380
1327, 1326, 1327, 1382, 1381
1328, 1327, 1328, 1383, 1382
1329, 1328, 1329, 1384, 1383
1330, 1329, 1330, 1385, 1384
1331, 1330, 1331, 1386, 1385
1332, 1331, 1332, 1387, 1386
1333, 1332, 1333, 1388, 1387
1334, 1333, 1334, 1389, 1388
1335, 1334, 1335, 1390, 1389
1336, 1335, 1336, 1391, 1390
1337, 1336, 1337, 1392, 1391
1338, 1337, 1338, 1393, 1392
1339, 1338, 1339, 1394, 1393
1340, 1339, 1340, 1395, 1394
1341, 1340, 1341, 1396, 1395
1342, 1341, 1342, 1397, 1396
1343, 1342, 1343, 1398, 1397
1344, 1343, 1344, 1399, 1398
1345, 1344, 1345, 1400, 1399
1346, 1345, 1346, 1401, 1400
1347, 1346, 1347, 1402, 1401
1348, 1347, 1348, 1403, 1402
1349, 1348, 1349, 1404, 1403
1350, 1349, 1350, 1405, 1404
1351, 1350, 1351, 1406, 1405
1352, 1351, 1352, 1407, 1406
1353, 1352, 1353, 1408, 1407
1354, 1353, 1354, 1409, 1408
1355, 1354, 1355, 1410, 1409
1356, 1355, 1356, 1411, 1410
1357, 1356, 1357, 1412, 1411
1358, 1357, 1358, 1413, 1412
1359, 1358, 1359, 1414, 1413
1360, 1359, 1360, 1415, 1414
1361, 1360, 1361, 1416, 1415
1362, 1361, 1362, 1417, 1416
1363, 1362, 1363, 1418, 1417
1364, 1363, 1364, 1419, 1418
1365, 1364, 1365, 1420, 1419
1366, 1365, 1366, 1421, 1420
1367, 1366, 1367, 1422, 1421
1368, 1367, 1368, 1423, 1422
1369, 1368, 1369, 1424, 1423
1370, 1369, 1370, 1425, 1424
1371, 1370, 1371, 1426, 1425
1372, 1371, 1372, 1427, 1426
1373, 1372, 1373, 1428, 1427
1374, 1373, 1374, 1429, 1428
1375, 1374, 1375, 1430, 1429
1376, 1430, 1376, 1431, 1485
1377, 1376, 1377, 1432, 1431
1378, 1377, 1378, 1433, 1432
1379, 1378, 1379, 1434, 1433
1380, 1379, 1380, 1435, 1434
1381, 1380, 1381, 1436, 1435
1382, 1381, 1382, 1437, 1436
1383, 1382, 1383, 1438, 1437
1384, 1383, 1384, 1439, 1438
1385, 1384, 1385, 1440, 1439
1386, 1385, 1386, 1441, 1440
1387, 1386, 1387, 1442, 1441
1388, 1387, 1388, 1443, 1442
1389, 1388, 1389, 1444, 1443
1390, 1389, 1390, 1445, 1444
1391, 1390, 1391, 1446, 1445
1392, 1391, 1392, 1447, 1446
1393, 1392, 1393, 1448, 1447
1394, 1393, 1394, 1449, 1448
1395, 1394, 1395, 1450, 1449
1396, 1395, 1396, 1451, 1450
1397, 1396, 1397, 1452, 1451
1398, 1397, 1398, 1453, 1452
1399, 1398, 1399, 1454, 1453
1400, 1399, 1400, 1455, 1454
1401, 1400, 1401, 1456, 1455
1402, 1401, 1402, 1457, 1456
1403, 1402, 1403, 1458, 1457
1404, 1403, 1404, 1459, 1458
1405, 1404, 1405, 1460, 1459
1406, 1405, 1406, 1461, 1460
1407, 1406, 1407, 1462, 1461
1408, 1407, 1408, 1463, 1462
1409, 1408, 1409, 1464, 1463
1410, 1409, 1410, 1465, 1464
1411, 1410, 1411, 1466, 1465
1412, 1411, 1412, 1467, 1466
1413, 1412, 1413, 1468, 1467
1414, 1413, 1414, 1469, 1468
1415, 1414, 1415, 1470, 1469
1416, 1415, 1416, 1471, 1470
1417, 1416, 1417, 1472, 1471
1418, 1417, 1418, 1473, 1472
1419, 1418, 1419, 1474, 1473
1420, 1419, 1420, 1475, 1474
1421, 1420, 1421, 1476, 1475
1422, 1421, 1422, 1477, 1476
1423, 1422, 1423, 1478, 1477
1424, 1423, 1424, 1479, 1478
1425, 1424, 1425, 1480, 1479
1426, 1425, 1426, 1481, 1480
1427, 1426, 1427, 1482, 1481
1428, 1427, 1428, 1483, 1482
1429, 1428, 1429, 1484, 1483
1430, 1429, 1430, 1485, 1484
1431, 1485, 1431, 1486, 1540
1432, 1431, 1432, 1487, 1486
1433, 1432, 1433, 1488, 1487
1434, 1433, 1434, 1489, 1488
1435, 1434, 1435, 1490, 1489
1436, 1435, 1436, 1491, 1490
1437, 1436, 1437, 1492, 1491
1438, 1437, 1438, 1493, 1492
1439, 1438, 1439, 1494, 1493
1440, 1439, 1440, 1495, 1494
1441, 1440, 1441, 1496, 1495
1442, 1441, 1442, 1497, 1496
1443, 1442, 1443, 1498, 1497
1444, 1443, 1444, 1499, 1498
1445, 1444, 1445, 1500, 1499
1446, 1445, 1446, 1501, 1500
1447, 1446, 1447, 1502, 1501
1448, 1447, 1448, 1503, 1502
1449, 1448, 1449, 1504, 1503
1450, 1449, 1450, 1505, 1504
1451, 1450, 1451, 1506, 1505
1452, 1451, 1452, 1507, 1506
1453, 1452, 1453, 1508, 1507
1454, 1453, 1454, 1509, 1508
1455, 1454, 1455, 1510, 1509
1456, 1455, 1456, 1511, 1510
1457, 1456, 1457, 1512, 1511
1458, 1457, 1458, 1513, 1512
1459, 1458, 1459, 1514, 1513
1460, 1459, 1460, 1515, 1514
1461, 1460, 1461, 1516, 1515
1462, 1461, 1462, 1517, 1516
1463, 1462, 1463, 1518, 1517
1464, 1463, 1464, 1519, 1518
1465, 1464, 1465, 1520, 1519
1466, 1465, 1466, 1521, 1520
1467, 1466, 1467, 1522, 1521
1468, 1467, 1468, 1523, 1522
1469, 1468, 1469, 1524, 1523
1470, 1469, 1470, 1525, 1524
1471, 1470, 1471, 1526, 1525
1472, 1471, 1472, 1527, 1526
1473, 1472, 1473, 1528, 1527
1474, 1473, 1474, 1529, 1528
1475, 1474, 1475, 1530, 1529
1476, 1475, 1476, 1531, 1530
1477, 1476, 1477, 1532, 1531
1478, 1477, 1478, 1533, 1532
1479, 1478, 1479, 1534, 1533
1480, 1479, 1480, 1535, 1534
1481, 1480, 1481, 1536, 1535
1482, 1481, 1482, 1537, 1536
1483, 1482, 1483, 1538, 1537
1484, 1483, 1484, 1539, 1538
1485, 1484, 1485, 1540, 1539
1486, 1540, 1486, 1541, 1595
1487, 1486, 1487, 1542, 1541
1488, 1487, 1488, 1543, 1542
1489, 1488, 1489, 1544, 1543
1490, 1489, 1490, 1545, 1544
1491, 1490, 1491, 1546, 1545
1492, 1491, 1492, 1547, 1546
1493, 1492, 1493, 1548, 1547
1494, 1493, 1494, 1549, 1548
1495, 1494, 1495, 1550, 1549
1496, 1495, 1496, 1551, 1550
1497, 1496, 1497, 1552, 1551
1498, 1497, 1498, 1553, 1552
1499, 1498, 1499, 1554, 1553
1500, 1499, 1500, 1555, 1554
1501, 1500, 1501, 1556, 1555
1502, 1501, 1502, 1557, 1556
1503, 1502, 1503, 1558, 1557
1504, 1503, 1504, 1559, 1558
1505, 1504, 1505, 1560, 1559
1506, 1505, 1506, 1561, 1560
1507, 1506, 1507, 1562, 1561
1508, 1507, 1508, 1563, 1562
1509, 1508, 1509, 1564, 1563
1510, 1509, 1510, 1565, 1564
1511, 1510, 1511, 1566, 1565
1512, 1511, 1512, 1567, 1566
1513, 1512, 1513, 1568, 1567
1514, 1513, 1514, 1569, 1568
1515, 1514, 1515, 1570, 1569
1516, 1515, 1516, 1571, 1570
1517, 1516, 1517, 1572, 1571
1518, 1517, 1518, 1573, 1572
1519, 1518, 1519, 1574, 1573
1520, 1519, 1520, 1575, 1574
1521, 1520, 1521, 1576, 1575
1522, 1521, 1522, 1577, 1576
1523, 1522, 1523, 1578, 1577
1524, 1523, 1524, 1579, 1578
1525, 1524, 1525, 1580, 1579
1526, 1525, 1526, 1581, 1580
1527, 1526, 1527, 1582, 1581
1528, 1527, 1528, 1583, 1582
1529, 1528, 1529, 1584, 1583
1530, 1529, 1530, 1585, 1584
1531, 1530, 1531, 1586, 1585
1532, 1531, 1532, 1587, 1586
1533, 1532, 1533, 1588, 1587
1534, 1533, 1534, 1589, 1588
1535, 1534, 1535, 1590, 1589
1536, 1535, 1536, 1591, 1590
1537, 1536, 1537, 1592, 1591
1538, 1537, 1538, 1593, 1592
1539, 1538, 1539, 1594, 1593
1540, 1539, 1540, 1595, 1594
1541, 1595, 1541, 1596, 1650
1542, 1541, 1542, 1597, 1596
1543, 1542, 1543, 1598, 1597
1544, 1543, 1544, 1599, 1598
1545, 1544, 1545, 1600, 1599
1546, 1545, 1546, 1601, 1600
1547, 1546, 1547, 1602, 1601
1548, 1547, 1548, 1603, 1602
1549, 1548, 1549, 1604, 1603
1550, 1549, 1550, 1605, 1604
1551, 1550, 1551, 1606, 1605
1552, 1551, 1552, 1607, 1606
1553, 1552, 1553, 1608, 1607
1554, 1553, 1554, 1609, 1608
1555, 1554, 1555, 1610, 1609
1556, 1555, 1556, 1611, 1610
1557, 1556, 1557, 1612, 1611
1558, 1557, 1558, 1613, 1612
1559, 1558, 1559, 1614, 1613
1560, 1559, 1560, 1615, 1614
1561, 1560, 1561, 1616, 1615
1562, 1561, 1562, 1617, 1616
1563, 1562, 1563, 1618, 1617
1564, 1563, 1564, 1619, 1618
1565, 1564, 1565, 1620, 1619
1566, 1565, 1566, 1621, 1620
1567, 1566, 1567, 1622, 1621
1568, 1567, 1568, 1623, 1622
1569, 1568, 1569, 1624, 1623
1570, 1569, 1570, 1625, 1624
1571, 1570, 1571, 1626, 1625
1572, 1571, 1572, 1627, 1626
1573, 1572, 1573, 1628, 1627
1574, 1573, 1574, 1629, 1628
1575, 1574, 1575, 1630, 1629
1576, 1575, 1576, 1631, 1630
1577, 1576, 1577, 1632, 1631
1578, 1577, 1578, 1633, 1632
1579, 1578, 1579, 1634, 1633
1580, 1579, 1580, 1635, 1634
1581, 1580, 1581, 1636, 1635
1582, 1581, 1582, 1637, 1636
1583, 1582, 1583, 1638, 1637
1584, 1583, 1584, 1639, 1638
1585, 1584, 1585, 1640, 1639
1586, 1585, 1586, 1641, 1640
1587, 1586, 1587, 1642, 1641
1588, 1587, 1588, 1643, 1642
1589, 1588, 1589, 1644, 1643
1590, 1589, 1590, 1645, 1644
1591, 1590, 1591, 1646, 1645
1592, 1591, 1592, 1647, 1646
1593, 1592, 1593, 1648, 1647
1594, 1593, 1594, 1649, 1648
1595, 1594, 1595, 1650, 1649
1596, 1650, 1596, 1651, 1705
1597, 1596, 1597, 1652, 1651
1598, 1597, 1598, 1653, 1652
1599, 1598, 1599, 1654, 1653
1600, 1599, 1600, 1655, 1654
1601, 1600, 1601, 1656, 1655
1602, 1601, 1602, 1657, 1656
1603, 1602, 1603, 1658, 1657
1604, 1603, 1604, 1659, 1658
1605, 1604, 1605, 1660, 1659
1606, 1605, 1606, 1661, 1660
1607, 1606, 1607, 1662, 1661
1608, 1607, 1608, 1663, 1662
1609, 1608, 1609, 1664, 1663
1610, 1609, 1610, 1665, 1664
1611, 1610, 1611, 1666, 1665
1612, 1611, 1612, 1667, 1666
1613, 1612, 1613, 1668, 1667
1614, 1613, 1614, 1669, 1668
1615, 1614, 1615, 1670, 1669
1616, 1615, 1616, 1671, 1670
1617, 1616, 1617, 1672, 1671
1618, 1617, 1618, 1673, 1672
1619, 1618, 1619, 1674, 1673
1620, 1619, 1620, 1675, 1674
1621, 1620, 1621, 1676, 1675
1622, 1621, 1622, 1677, 1676
1623, 1622, 1623, 1678, 1677
1624, 1623, 1624, 1679, 1678
1625, 1624, 1625, 1680, 1679
1626, 1625, 1626, 1681, 1680
1627, 1626, 1627, 1682, 1681
1628, 1627, 1628, 1683, 1682
1629, 1628, 1629, 1684, 1683
1630, 1629, 1630, 1685, 1684
1631, 1630, 1631, 1686, 1685
1632, 1631, 1632, 1687, 1686
1633, 1632, 1633, 1688, 1687
1634, 1633, 1634, 1689, 1688
1635, 1634, 1635, 1690, 1689
1636, 1635, 1636, 1691, 1690
1637, 1636, 1637, 1692, 1691
1638, 1637, 1638, 1693, 1692
1639, 1638, 1639, 1694, 1693
1640, 1639, 1640, 1695, 1694
1641, 1640, 1641, 1696, 1695
1642, 1641, 1642, 1697, 1696
1643, 1642, 1643, 1698, 1697
1644, 1643, 1644, 1699, 1698
1645, 1644, 1645, 1700, 1699
1646, 1645, 1646, 1701, 1700
1647, 1646, 1647, 1702, 1701
1648, 1647, 1648, 1703, 1702
1649, 1648, 1649, 1704, 1703
1650, 1649, 1650, 1705, 1704
*Orientation, name=Ori-1
1., 0., 0., 0., 1., 0.
1, 0.
** Region: (CompositeLayup-1-1: Generated From Layup)
*Elset, elset=CompositeLayup-1-1, generate
    1,  1650,     1
** Section: CompositeLayup-1-1
*Shell Section, elset=CompositeLayup-1-1, composite, orientation=Ori-1, density=0., layup=CompositeLayup-1
0.2416, 3, Composite, 40.725, Ply-1
0.2416, 3, Composite, -40.725, Ply-2
0.2416, 3, Composite, 28.562, Ply-3
0.2416, 3, Composite, -28.562, Ply-4
0.2416, 3, Composite, 40.725, Ply-5
0.2416, 3, Composite, -40.725, Ply-6
0.2416, 3, Composite, 28.562, Ply-7
0.2416, 3, Composite, -28.562, Ply-8
0.2416, 3, Composite, 40.725, Ply-9
0.2416, 3, Composite, -40.725, Ply-10
0.2416, 3, Composite, 28.562, Ply-11
0.2416, 3, Composite, -28.562, Ply-12
0.2416, 3, Composite, 40.725, Ply-13
0.2416, 3, Composite, -40.725, Ply-14
0.2416, 3, Composite, 28.562, Ply-15
0.2416, 3, Composite, -28.562, Ply-16
0.2416, 3, Composite, 40.725, Ply-17
0.2416, 3, Composite, -40.725, Ply-18
0.2416, 3, Composite, 28.562, Ply-19
0.2416, 3, Composite, -28.562, Ply-20
0.2416, 3, Composite, 40.725, Ply-21
0.2416, 3, Composite, -40.725, Ply-22
0.2416, 3, Composite, 28.562, Ply-23
0.2416, 3, Composite, -28.562, Ply-24
0.2416, 3, Composite, 40.725, Ply-25
0.2416, 3, Composite, -40.725, Ply-26
0.2416, 3, Composite, 28.562, Ply-27
0.2416, 3, Composite, -28.562, Ply-28
0.2416, 3, Composite, 40.725, Ply-29
0.2416, 3, Composite, -40.725, Ply-30
0.2416, 3, Composite, 28.562, Ply-31
0.2416, 3, Composite, -28.562, Ply-32
0.2416, 3, Composite, 40.725, Ply-33
0.2416, 3, Composite, -40.725, Ply-34
0.2416, 3, Composite, 28.562, Ply-35
0.2416, 3, Composite, -28.562, Ply-36
0.2416, 3, Composite, 40.725, Ply-37
0.2416, 3, Composite, -40.725, Ply-38
0.2416, 3, Composite, 28.562, Ply-39
0.2416, 3, Composite, -28.562, Ply-40
*End Part
**
**
** ASSEMBLY
**
*Assembly, name=Assembly
**
*Instance, name=CompositeHull-1, part=CompositeHull
*End Instance
**
*Nset, nset=_PickedSet5, internal, instance=CompositeHull-1, generate
  1,  55,   1
*Elset, elset=_PickedSet5, internal, instance=CompositeHull-1, generate
  1,  55,   1
*Nset, nset=_PickedSet6, internal, instance=CompositeHull-1, generate
 1651,  1705,     1
*Elset, elset=_PickedSet6, internal, instance=CompositeHull-1, generate
 1596,  1650,     1
*Elset, elset=__PickedSurf4_SPOS, internal, instance=CompositeHull-1, generate
    1,  1650,     1
*Surface, type=ELEMENT, name=_PickedSurf4, internal
__PickedSurf4_SPOS, SPOS
*End Assembly
**
** MATERIALS
**
*Material, name=Composite
*Density
 1.55e-09,
*Elastic, type=LAMINA
102000.,7000., 0.16,3350.,3350.,2680.
*Fail Stress
1400.,1050.,  28., 105.,  75.,   0.,   0.
**
** BOUNDARY CONDITIONS
**
** Name: BC-End-0 Type: �Գ�/���Գ�/��ȫ�̶�
*Boundary
_PickedSet5, ENCASTRE
** Name: BC-End-1 Type: �Գ�/���Գ�/��ȫ�̶�
*Boundary
_PickedSet6, ENCASTRE
** ----------------------------------------------------------------
**
** STEP: Step-1
**
*Step, name=Step-1, nlgeom=NO, perturbation
*Buckle
8, , 12, 300
**
** BOUNDARY CONDITIONS
**
** Name: BC-End-0 Type: �Գ�/���Գ�/��ȫ�̶�
*Boundary, op=NEW, load case=1
_PickedSet5, ENCASTRE
*Boundary, op=NEW, load case=2
_PickedSet5, ENCASTRE
** Name: BC-End-1 Type: �Գ�/���Գ�/��ȫ�̶�
*Boundary, op=NEW, load case=1
_PickedSet6, ENCASTRE
*Boundary, op=NEW, load case=2
_PickedSet6, ENCASTRE
**
** LOADS
**
** Name: ExternalPressure   Type: Pressure
*Dsload
_PickedSurf4, P, 1.
**
** OUTPUT REQUESTS
**
*Restart, write, frequency=0
**
** FIELD OUTPUT: F-Output-1
**
*Output, field, variable=PRESELECT
*Node File
U
*End Step
