*Heading
 CSDM_cph pressure hull first-mode imperfection Riks postbuckling
** Job name: C2_post Model name: CPH_Post_Model
** Generated by: Abaqus/CAE 2023
*Preprint, echo=NO, model=NO, history=NO, contact=NO
**
** PARTS
**
*Part, name=CompositeHull
*Node
      1,   146.100677,           0.,  -19.6486301
      2,   142.178192,           0.,  -38.9466286
      3,   135.718521,           0.,  -57.5496254
      4,    126.83696,           0.,  -75.1256485
      5,   115.691986,           0.,  -91.3610458
      6,   102.482491,           0.,   -105.96611
      7,   87.4441833,           0.,  -118.680206
      8,   70.8454437,           0.,  -129.276443
      9,   52.9824562,           0.,   -137.56575
     10,   34.1739998,           0.,  -143.400192
     11,   14.7557068,           0.,  -146.675644
     12,  -4.92590237,           0.,  -147.333679
     13,  -24.5196075,           0.,  -145.362534
     14,  -43.6757622,           0.,  -140.797394
     15,  -62.0525208,           0.,  -133.719711
     16,  -79.3219452,           0.,  -124.255806
     17,  -95.1758728,           0.,  -112.574554
     18,   -109.33139,           0.,  -98.8843994
     19,  -121.535873,           0.,   -83.429657
     20,  -131.571564,           0.,  -66.4861069
     21,  -139.259338,           0.,  -48.3561134
     22,  -144.462036,           0.,  -29.3632011
     23,  -147.086807,           0.,  -9.84630299
     24,  -147.086807,           0.,   9.84630299
     25,  -144.462036,           0.,   29.3632011
     26,  -139.259338,           0.,   48.3561134
     27,  -131.571564,           0.,   66.4861069
     28,  -121.535873,           0.,    83.429657
     29,   -109.33139,           0.,   98.8843994
     30,  -95.1758728,           0.,   112.574554
     31,  -79.3219452,           0.,   124.255806
     32,  -62.0525208,           0.,   133.719711
     33,  -43.6757622,           0.,   140.797394
     34,  -24.5196075,           0.,   145.362534
     35,  -4.92590237,           0.,   147.333679
     36,   14.7557068,           0.,   146.675644
     37,   34.1739998,           0.,   143.400192
     38,   52.9824562,           0.,    137.56575
     39,   70.8454437,           0.,   129.276443
     40,   87.4441833,           0.,   118.680206
     41,   102.482491,           0.,    105.96611
     42,   115.691986,           0.,   91.3610458
     43,    126.83696,           0.,   75.1256485
     44,   135.718521,           0.,   57.5496254
     45,   142.178192,           0.,   38.9466286
     46,   146.100677,           0.,   19.6486301
     47,      147.416,           0.,           0.
     48,   146.100677,   19.5286674,  -19.6486301
     49,   142.178192,   19.5286674,  -38.9466286
     50,   135.718521,   19.5286674,  -57.5496254
     51,    126.83696,   19.5286674,  -75.1256485
     52,   115.691986,   19.5286674,  -91.3610458
     53,   102.482491,   19.5286674,   -105.96611
     54,   87.4441833,   19.5286674,  -118.680206
     55,   70.8454437,   19.5286674,  -129.276443
     56,   52.9824562,   19.5286674,   -137.56575
     57,   34.1739998,   19.5286674,  -143.400192
     58,   14.7557077,   19.5286674,  -146.675644
     59,  -4.92590237,   19.5286674,  -147.333679
     60,  -24.5196075,   19.5286674,  -145.362534
     61,  -43.6757622,   19.5286674,  -140.797394
     62,  -62.0525208,   19.5286674,  -133.719711
     63,  -79.3219452,   19.5286674,  -124.255806
     64,  -95.1758728,   19.5286674,  -112.574554
     65,   -109.33139,   19.5286674,  -98.8843994
     66,  -121.535873,   19.5286674,   -83.429657
     67,  -131.571564,   19.5286674,  -66.4861069
     68,  -139.259338,   19.5286674,  -48.3561134
     69,  -144.462036,   19.5286674,  -29.3632011
     70,  -147.086807,   19.5286674,  -9.84630299
     71,  -147.086807,   19.5286674,   9.84630299
     72,  -144.462036,   19.5286674,   29.3632011
     73,  -139.259338,   19.5286674,   48.3561134
     74,  -131.571564,   19.5286674,   66.4861069
     75,  -121.535873,   19.5286674,    83.429657
     76,   -109.33139,   19.5286674,   98.8843994
     77,  -95.1758728,   19.5286674,   112.574554
     78,  -79.3219452,   19.5286674,   124.255806
     79,  -62.0525208,   19.5286674,   133.719711
     80,  -43.6757622,   19.5286674,   140.797394
     81,  -24.5196075,   19.5286674,   145.362534
     82,  -4.92590237,   19.5286674,   147.333679
     83,   14.7557077,   19.5286674,   146.675644
     84,   34.1739998,   19.5286674,   143.400192
     85,   52.9824562,   19.5286674,    137.56575
     86,   70.8454437,   19.5286674,   129.276443
     87,   87.4441833,   19.5286674,   118.680206
     88,   102.482491,   19.5286674,    105.96611
     89,   115.691986,   19.5286674,   91.3610458
     90,    126.83696,   19.5286674,   75.1256485
     91,   135.718521,   19.5286674,   57.5496254
     92,   142.178192,   19.5286674,   38.9466286
     93,   146.100677,   19.5286674,   19.6486301
     94,      147.416,   19.5286674,           0.
     95,   146.100677,   39.0573349,  -19.6486301
     96,   142.178192,   39.0573349,  -38.9466286
     97,   135.718521,   39.0573349,  -57.5496254
     98,    126.83696,   39.0573349,  -75.1256485
     99,   115.691986,   39.0573349,  -91.3610458
    100,   102.482491,   39.0573349,   -105.96611
    101,   87.4441833,   39.0573349,  -118.680206
    102,   70.8454437,   39.0573349,  -129.276443
    103,   52.9824562,   39.0573349,   -137.56575
    104,   34.1739998,   39.0573349,  -143.400192
    105,   14.7557077,   39.0573349,  -146.675644
    106,  -4.92590237,   39.0573349,  -147.333679
    107,  -24.5196075,   39.0573349,  -145.362534
    108,  -43.6757622,   39.0573349,  -140.797394
    109,  -62.0525208,   39.0573349,  -133.719711
    110,  -79.3219452,   39.0573349,  -124.255806
    111,  -95.1758728,   39.0573349,  -112.574554
    112,   -109.33139,   39.0573349,  -98.8843994
    113,  -121.535873,   39.0573349,   -83.429657
    114,  -131.571564,   39.0573349,  -66.4861069
    115,  -139.259338,   39.0573349,  -48.3561134
    116,  -144.462036,   39.0573349,  -29.3632011
    117,  -147.086807,   39.0573349,  -9.84630299
    118,  -147.086807,   39.0573349,   9.84630299
    119,  -144.462036,   39.0573349,   29.3632011
    120,  -139.259338,   39.0573349,   48.3561134
    121,  -131.571564,   39.0573349,   66.4861069
    122,  -121.535873,   39.0573349,    83.429657
    123,   -109.33139,   39.0573349,   98.8843994
    124,  -95.1758728,   39.0573349,   112.574554
    125,  -79.3219452,   39.0573349,   124.255806
    126,  -62.0525208,   39.0573349,   133.719711
    127,  -43.6757622,   39.0573349,   140.797394
    128,  -24.5196075,   39.0573349,   145.362534
    129,  -4.92590237,   39.0573349,   147.333679
    130,   14.7557077,   39.0573349,   146.675644
    131,   34.1739998,   39.0573349,   143.400192
    132,   52.9824562,   39.0573349,    137.56575
    133,   70.8454437,   39.0573349,   129.276443
    134,   87.4441833,   39.0573349,   118.680206
    135,   102.482491,   39.0573349,    105.96611
    136,   115.691986,   39.0573349,   91.3610458
    137,    126.83696,   39.0573349,   75.1256485
    138,   135.718521,   39.0573349,   57.5496254
    139,   142.178192,   39.0573349,   38.9466286
    140,   146.100677,   39.0573349,   19.6486301
    141,      147.416,   39.0573349,           0.
    142,   146.100677,   58.5859985,  -19.6486301
    143,   142.178192,   58.5859985,  -38.9466286
    144,   135.718521,   58.5859985,  -57.5496254
    145,    126.83696,   58.5859985,  -75.1256485
    146,   115.691986,   58.5859985,  -91.3610458
    147,   102.482491,   58.5859985,   -105.96611
    148,   87.4441833,   58.5859985,  -118.680206
    149,   70.8454437,   58.5859985,  -129.276443
    150,   52.9824562,   58.5859985,   -137.56575
    151,   34.1739998,   58.5859985,  -143.400192
    152,   14.7557077,   58.5859985,  -146.675644
    153,  -4.92590237,   58.5859985,  -147.333679
    154,  -24.5196075,   58.5859985,  -145.362534
    155,  -43.6757622,   58.5859985,  -140.797394
    156,  -62.0525208,   58.5859985,  -133.719711
    157,  -79.3219452,   58.5859985,  -124.255806
    158,  -95.1758728,   58.5859985,  -112.574554
    159,   -109.33139,   58.5859985,  -98.8843994
    160,  -121.535873,   58.5859985,   -83.429657
    161,  -131.571564,   58.5859985,  -66.4861069
    162,  -139.259338,   58.5859985,  -48.3561134
    163,  -144.462036,   58.5859985,  -29.3632011
    164,  -147.086807,   58.5859985,  -9.84630299
    165,  -147.086807,   58.5859985,   9.84630299
    166,  -144.462036,   58.5859985,   29.3632011
    167,  -139.259338,   58.5859985,   48.3561134
    168,  -131.571564,   58.5859985,   66.4861069
    169,  -121.535873,   58.5859985,    83.429657
    170,   -109.33139,   58.5859985,   98.8843994
    171,  -95.1758728,   58.5859985,   112.574554
    172,  -79.3219452,   58.5859985,   124.255806
    173,  -62.0525208,   58.5859985,   133.719711
    174,  -43.6757622,   58.5859985,   140.797394
    175,  -24.5196075,   58.5859985,   145.362534
    176,  -4.92590237,   58.5859985,   147.333679
    177,   14.7557077,   58.5859985,   146.675644
    178,   34.1739998,   58.5859985,   143.400192
    179,   52.9824562,   58.5859985,    137.56575
    180,   70.8454437,   58.5859985,   129.276443
    181,   87.4441833,   58.5859985,   118.680206
    182,   102.482491,   58.5859985,    105.96611
    183,   115.691986,   58.5859985,   91.3610458
    184,    126.83696,   58.5859985,   75.1256485
    185,   135.718521,   58.5859985,   57.5496254
    186,   142.178192,   58.5859985,   38.9466286
    187,   146.100677,   58.5859985,   19.6486301
    188,      147.416,   58.5859985,           0.
    189,   146.100677,   78.1146698,  -19.6486301
    190,   142.178192,   78.1146698,  -38.9466286
    191,   135.718521,   78.1146698,  -57.5496254
    192,    126.83696,   78.1146698,  -75.1256485
    193,   115.691986,   78.1146698,  -91.3610458
    194,   102.482491,   78.1146698,   -105.96611
    195,   87.4441833,   78.1146698,  -118.680206
    196,   70.8454437,   78.1146698,  -129.276443
    197,   52.9824562,   78.1146698,   -137.56575
    198,   34.1739998,   78.1146698,  -143.400192
    199,   14.7557077,   78.1146698,  -146.675644
    200,  -4.92590237,   78.1146698,  -147.333679
    201,  -24.5196075,   78.1146698,  -145.362534
    202,  -43.6757622,   78.1146698,  -140.797394
    203,  -62.0525208,   78.1146698,  -133.719711
    204,  -79.3219452,   78.1146698,  -124.255806
    205,  -95.1758728,   78.1146698,  -112.574554
    206,   -109.33139,   78.1146698,  -98.8843994
    207,  -121.535873,   78.1146698,   -83.429657
    208,  -131.571564,   78.1146698,  -66.4861069
    209,  -139.259338,   78.1146698,  -48.3561134
    210,  -144.462036,   78.1146698,  -29.3632011
    211,  -147.086807,   78.1146698,  -9.84630299
    212,  -147.086807,   78.1146698,   9.84630299
    213,  -144.462036,   78.1146698,   29.3632011
    214,  -139.259338,   78.1146698,   48.3561134
    215,  -131.571564,   78.1146698,   66.4861069
    216,  -121.535873,   78.1146698,    83.429657
    217,   -109.33139,   78.1146698,   98.8843994
    218,  -95.1758728,   78.1146698,   112.574554
    219,  -79.3219452,   78.1146698,   124.255806
    220,  -62.0525208,   78.1146698,   133.719711
    221,  -43.6757622,   78.1146698,   140.797394
    222,  -24.5196075,   78.1146698,   145.362534
    223,  -4.92590237,   78.1146698,   147.333679
    224,   14.7557077,   78.1146698,   146.675644
    225,   34.1739998,   78.1146698,   143.400192
    226,   52.9824562,   78.1146698,    137.56575
    227,   70.8454437,   78.1146698,   129.276443
    228,   87.4441833,   78.1146698,   118.680206
    229,   102.482491,   78.1146698,    105.96611
    230,   115.691986,   78.1146698,   91.3610458
    231,    126.83696,   78.1146698,   75.1256485
    232,   135.718521,   78.1146698,   57.5496254
    233,   142.178192,   78.1146698,   38.9466286
    234,   146.100677,   78.1146698,   19.6486301
    235,      147.416,   78.1146698,           0.
    236,   146.100677,   97.6433334,  -19.6486301
    237,   142.178192,   97.6433334,  -38.9466286
    238,   135.718521,   97.6433334,  -57.5496254
    239,    126.83696,   97.6433334,  -75.1256485
    240,   115.691986,   97.6433334,  -91.3610458
    241,   102.482491,   97.6433334,   -105.96611
    242,   87.4441833,   97.6433334,  -118.680206
    243,   70.8454437,   97.6433334,  -129.276443
    244,   52.9824562,   97.6433334,   -137.56575
    245,   34.1739998,   97.6433334,  -143.400192
    246,   14.7557077,   97.6433334,  -146.675644
    247,  -4.92590237,   97.6433334,  -147.333679
    248,  -24.5196075,   97.6433334,  -145.362534
    249,  -43.6757622,   97.6433334,  -140.797394
    250,  -62.0525208,   97.6433334,  -133.719711
    251,  -79.3219452,   97.6433334,  -124.255806
    252,  -95.1758728,   97.6433334,  -112.574554
    253,   -109.33139,   97.6433334,  -98.8843994
    254,  -121.535873,   97.6433334,   -83.429657
    255,  -131.571564,   97.6433334,  -66.4861069
    256,  -139.259338,   97.6433334,  -48.3561134
    257,  -144.462036,   97.6433334,  -29.3632011
    258,  -147.086807,   97.6433334,  -9.84630299
    259,  -147.086807,   97.6433334,   9.84630299
    260,  -144.462036,   97.6433334,   29.3632011
    261,  -139.259338,   97.6433334,   48.3561134
    262,  -131.571564,   97.6433334,   66.4861069
    263,  -121.535873,   97.6433334,    83.429657
    264,   -109.33139,   97.6433334,   98.8843994
    265,  -95.1758728,   97.6433334,   112.574554
    266,  -79.3219452,   97.6433334,   124.255806
    267,  -62.0525208,   97.6433334,   133.719711
    268,  -43.6757622,   97.6433334,   140.797394
    269,  -24.5196075,   97.6433334,   145.362534
    270,  -4.92590237,   97.6433334,   147.333679
    271,   14.7557077,   97.6433334,   146.675644
    272,   34.1739998,   97.6433334,   143.400192
    273,   52.9824562,   97.6433334,    137.56575
    274,   70.8454437,   97.6433334,   129.276443
    275,   87.4441833,   97.6433334,   118.680206
    276,   102.482491,   97.6433334,    105.96611
    277,   115.691986,   97.6433334,   91.3610458
    278,    126.83696,   97.6433334,   75.1256485
    279,   135.718521,   97.6433334,   57.5496254
    280,   142.178192,   97.6433334,   38.9466286
    281,   146.100677,   97.6433334,   19.6486301
    282,      147.416,   97.6433334,           0.
    283,   146.100677,   117.171997,  -19.6486301
    284,   142.178192,   117.171997,  -38.9466286
    285,   135.718521,   117.171997,  -57.5496254
    286,    126.83696,   117.171997,  -75.1256485
    287,   115.691986,   117.171997,  -91.3610458
    288,   102.482491,   117.171997,   -105.96611
    289,   87.4441833,   117.171997,  -118.680206
    290,   70.8454437,   117.171997,  -129.276443
    291,   52.9824562,   117.171997,   -137.56575
    292,   34.1739998,   117.171997,  -143.400192
    293,   14.7557077,   117.171997,  -146.675644
    294,  -4.92590237,   117.171997,  -147.333679
    295,  -24.5196075,   117.171997,  -145.362534
    296,  -43.6757622,   117.171997,  -140.797394
    297,  -62.0525208,   117.171997,  -133.719711
    298,  -79.3219452,   117.171997,  -124.255806
    299,  -95.1758728,   117.171997,  -112.574554
    300,   -109.33139,   117.171997,  -98.8843994
    301,  -121.535873,   117.171997,   -83.429657
    302,  -131.571564,   117.171997,  -66.4861069
    303,  -139.259338,   117.171997,  -48.3561134
    304,  -144.462036,   117.171997,  -29.3632011
    305,  -147.086807,   117.171997,  -9.84630299
    306,  -147.086807,   117.171997,   9.84630299
    307,  -144.462036,   117.171997,   29.3632011
    308,  -139.259338,   117.171997,   48.3561134
    309,  -131.571564,   117.171997,   66.4861069
    310,  -121.535873,   117.171997,    83.429657
    311,   -109.33139,   117.171997,   98.8843994
    312,  -95.1758728,   117.171997,   112.574554
    313,  -79.3219452,   117.171997,   124.255806
    314,  -62.0525208,   117.171997,   133.719711
    315,  -43.6757622,   117.171997,   140.797394
    316,  -24.5196075,   117.171997,   145.362534
    317,  -4.92590237,   117.171997,   147.333679
    318,   14.7557077,   117.171997,   146.675644
    319,   34.1739998,   117.171997,   143.400192
    320,   52.9824562,   117.171997,    137.56575
    321,   70.8454437,   117.171997,   129.276443
    322,   87.4441833,   117.171997,   118.680206
    323,   102.482491,   117.171997,    105.96611
    324,   115.691986,   117.171997,   91.3610458
    325,    126.83696,   117.171997,   75.1256485
    326,   135.718521,   117.171997,   57.5496254
    327,   142.178192,   117.171997,   38.9466286
    328,   146.100677,   117.171997,   19.6486301
    329,      147.416,   117.171997,           0.
    330,   146.100677,   136.700668,  -19.6486301
    331,   142.178192,   136.700668,  -38.9466286
    332,   135.718521,   136.700668,  -57.5496254
    333,    126.83696,   136.700668,  -75.1256485
    334,   115.691986,   136.700668,  -91.3610458
    335,   102.482491,   136.700668,   -105.96611
    336,   87.4441833,   136.700668,  -118.680206
    337,   70.8454437,   136.700668,  -129.276443
    338,   52.9824562,   136.700668,   -137.56575
    339,   34.1739998,   136.700668,  -143.400192
    340,   14.7557077,   136.700668,  -146.675644
    341,  -4.92590237,   136.700668,  -147.333679
    342,  -24.5196075,   136.700668,  -145.362534
    343,  -43.6757622,   136.700668,  -140.797394
    344,  -62.0525208,   136.700668,  -133.719711
    345,  -79.3219452,   136.700668,  -124.255806
    346,  -95.1758728,   136.700668,  -112.574554
    347,   -109.33139,   136.700668,  -98.8843994
    348,  -121.535873,   136.700668,   -83.429657
    349,  -131.571564,   136.700668,  -66.4861069
    350,  -139.259338,   136.700668,  -48.3561134
    351,  -144.462036,   136.700668,  -29.3632011
    352,  -147.086807,   136.700668,  -9.84630299
    353,  -147.086807,   136.700668,   9.84630299
    354,  -144.462036,   136.700668,   29.3632011
    355,  -139.259338,   136.700668,   48.3561134
    356,  -131.571564,   136.700668,   66.4861069
    357,  -121.535873,   136.700668,    83.429657
    358,   -109.33139,   136.700668,   98.8843994
    359,  -95.1758728,   136.700668,   112.574554
    360,  -79.3219452,   136.700668,   124.255806
    361,  -62.0525208,   136.700668,   133.719711
    362,  -43.6757622,   136.700668,   140.797394
    363,  -24.5196075,   136.700668,   145.362534
    364,  -4.92590237,   136.700668,   147.333679
    365,   14.7557077,   136.700668,   146.675644
    366,   34.1739998,   136.700668,   143.400192
    367,   52.9824562,   136.700668,    137.56575
    368,   70.8454437,   136.700668,   129.276443
    369,   87.4441833,   136.700668,   118.680206
    370,   102.482491,   136.700668,    105.96611
    371,   115.691986,   136.700668,   91.3610458
    372,    126.83696,   136.700668,   75.1256485
    373,   135.718521,   136.700668,   57.5496254
    374,   142.178192,   136.700668,   38.9466286
    375,   146.100677,   136.700668,   19.6486301
    376,      147.416,   136.700668,           0.
    377,   146.100677,    156.22934,  -19.6486301
    378,   142.178192,    156.22934,  -38.9466286
    379,   135.718521,    156.22934,  -57.5496254
    380,    126.83696,    156.22934,  -75.1256485
    381,   115.691986,    156.22934,  -91.3610458
    382,   102.482491,    156.22934,   -105.96611
    383,   87.4441833,    156.22934,  -118.680206
    384,   70.8454437,    156.22934,  -129.276443
    385,   52.9824562,    156.22934,   -137.56575
    386,   34.1739998,    156.22934,  -143.400192
    387,   14.7557077,    156.22934,  -146.675644
    388,  -4.92590237,    156.22934,  -147.333679
    389,  -24.5196075,    156.22934,  -145.362534
    390,  -43.6757622,    156.22934,  -140.797394
    391,  -62.0525208,    156.22934,  -133.719711
    392,  -79.3219452,    156.22934,  -124.255806
    393,  -95.1758728,    156.22934,  -112.574554
    394,   -109.33139,    156.22934,  -98.8843994
    395,  -121.535873,    156.22934,   -83.429657
    396,  -131.571564,    156.22934,  -66.4861069
    397,  -139.259338,    156.22934,  -48.3561134
    398,  -144.462036,    156.22934,  -29.3632011
    399,  -147.086807,    156.22934,  -9.84630299
    400,  -147.086807,    156.22934,   9.84630299
    401,  -144.462036,    156.22934,   29.3632011
    402,  -139.259338,    156.22934,   48.3561134
    403,  -131.571564,    156.22934,   66.4861069
    404,  -121.535873,    156.22934,    83.429657
    405,   -109.33139,    156.22934,   98.8843994
    406,  -95.1758728,    156.22934,   112.574554
    407,  -79.3219452,    156.22934,   124.255806
    408,  -62.0525208,    156.22934,   133.719711
    409,  -43.6757622,    156.22934,   140.797394
    410,  -24.5196075,    156.22934,   145.362534
    411,  -4.92590237,    156.22934,   147.333679
    412,   14.7557077,    156.22934,   146.675644
    413,   34.1739998,    156.22934,   143.400192
    414,   52.9824562,    156.22934,    137.56575
    415,   70.8454437,    156.22934,   129.276443
    416,   87.4441833,    156.22934,   118.680206
    417,   102.482491,    156.22934,    105.96611
    418,   115.691986,    156.22934,   91.3610458
    419,    126.83696,    156.22934,   75.1256485
    420,   135.718521,    156.22934,   57.5496254
    421,   142.178192,    156.22934,   38.9466286
    422,   146.100677,    156.22934,   19.6486301
    423,      147.416,    156.22934,           0.
    424,   146.100677,   175.757996,  -19.6486301
    425,   142.178192,   175.757996,  -38.9466286
    426,   135.718521,   175.757996,  -57.5496254
    427,    126.83696,   175.757996,  -75.1256485
    428,   115.691986,   175.757996,  -91.3610458
    429,   102.482491,   175.757996,   -105.96611
    430,   87.4441833,   175.757996,  -118.680206
    431,   70.8454437,   175.757996,  -129.276443
    432,   52.9824562,   175.757996,   -137.56575
    433,   34.1739998,   175.757996,  -143.400192
    434,   14.7557077,   175.757996,  -146.675644
    435,  -4.92590237,   175.757996,  -147.333679
    436,  -24.5196075,   175.757996,  -145.362534
    437,  -43.6757622,   175.757996,  -140.797394
    438,  -62.0525208,   175.757996,  -133.719711
    439,  -79.3219452,   175.757996,  -124.255806
    440,  -95.1758728,   175.757996,  -112.574554
    441,   -109.33139,   175.757996,  -98.8843994
    442,  -121.535873,   175.757996,   -83.429657
    443,  -131.571564,   175.757996,  -66.4861069
    444,  -139.259338,   175.757996,  -48.3561134
    445,  -144.462036,   175.757996,  -29.3632011
    446,  -147.086807,   175.757996,  -9.84630299
    447,  -147.086807,   175.757996,   9.84630299
    448,  -144.462036,   175.757996,   29.3632011
    449,  -139.259338,   175.757996,   48.3561134
    450,  -131.571564,   175.757996,   66.4861069
    451,  -121.535873,   175.757996,    83.429657
    452,   -109.33139,   175.757996,   98.8843994
    453,  -95.1758728,   175.757996,   112.574554
    454,  -79.3219452,   175.757996,   124.255806
    455,  -62.0525208,   175.757996,   133.719711
    456,  -43.6757622,   175.757996,   140.797394
    457,  -24.5196075,   175.757996,   145.362534
    458,  -4.92590237,   175.757996,   147.333679
    459,   14.7557077,   175.757996,   146.675644
    460,   34.1739998,   175.757996,   143.400192
    461,   52.9824562,   175.757996,    137.56575
    462,   70.8454437,   175.757996,   129.276443
    463,   87.4441833,   175.757996,   118.680206
    464,   102.482491,   175.757996,    105.96611
    465,   115.691986,   175.757996,   91.3610458
    466,    126.83696,   175.757996,   75.1256485
    467,   135.718521,   175.757996,   57.5496254
    468,   142.178192,   175.757996,   38.9466286
    469,   146.100677,   175.757996,   19.6486301
    470,      147.416,   175.757996,           0.
    471,   146.100677,   195.286667,  -19.6486301
    472,   142.178192,   195.286667,  -38.9466286
    473,   135.718521,   195.286667,  -57.5496254
    474,    126.83696,   195.286667,  -75.1256485
    475,   115.691986,   195.286667,  -91.3610458
    476,   102.482491,   195.286667,   -105.96611
    477,   87.4441833,   195.286667,  -118.680206
    478,   70.8454437,   195.286667,  -129.276443
    479,   52.9824562,   195.286667,   -137.56575
    480,   34.1739998,   195.286667,  -143.400192
    481,   14.7557077,   195.286667,  -146.675644
    482,  -4.92590237,   195.286667,  -147.333679
    483,  -24.5196075,   195.286667,  -145.362534
    484,  -43.6757622,   195.286667,  -140.797394
    485,  -62.0525208,   195.286667,  -133.719711
    486,  -79.3219452,   195.286667,  -124.255806
    487,  -95.1758728,   195.286667,  -112.574554
    488,   -109.33139,   195.286667,  -98.8843994
    489,  -121.535873,   195.286667,   -83.429657
    490,  -131.571564,   195.286667,  -66.4861069
    491,  -139.259338,   195.286667,  -48.3561134
    492,  -144.462036,   195.286667,  -29.3632011
    493,  -147.086807,   195.286667,  -9.84630299
    494,  -147.086807,   195.286667,   9.84630299
    495,  -144.462036,   195.286667,   29.3632011
    496,  -139.259338,   195.286667,   48.3561134
    497,  -131.571564,   195.286667,   66.4861069
    498,  -121.535873,   195.286667,    83.429657
    499,   -109.33139,   195.286667,   98.8843994
    500,  -95.1758728,   195.286667,   112.574554
    501,  -79.3219452,   195.286667,   124.255806
    502,  -62.0525208,   195.286667,   133.719711
    503,  -43.6757622,   195.286667,   140.797394
    504,  -24.5196075,   195.286667,   145.362534
    505,  -4.92590237,   195.286667,   147.333679
    506,   14.7557077,   195.286667,   146.675644
    507,   34.1739998,   195.286667,   143.400192
    508,   52.9824562,   195.286667,    137.56575
    509,   70.8454437,   195.286667,   129.276443
    510,   87.4441833,   195.286667,   118.680206
    511,   102.482491,   195.286667,    105.96611
    512,   115.691986,   195.286667,   91.3610458
    513,    126.83696,   195.286667,   75.1256485
    514,   135.718521,   195.286667,   57.5496254
    515,   142.178192,   195.286667,   38.9466286
    516,   146.100677,   195.286667,   19.6486301
    517,      147.416,   195.286667,           0.
    518,   146.100677,   214.815338,  -19.6486301
    519,   142.178192,   214.815338,  -38.9466286
    520,   135.718521,   214.815338,  -57.5496254
    521,    126.83696,   214.815338,  -75.1256485
    522,   115.691986,   214.815338,  -91.3610458
    523,   102.482491,   214.815338,   -105.96611
    524,   87.4441833,   214.815338,  -118.680206
    525,   70.8454437,   214.815338,  -129.276443
    526,   52.9824562,   214.815338,   -137.56575
    527,   34.1739998,   214.815338,  -143.400192
    528,   14.7557077,   214.815338,  -146.675644
    529,  -4.92590237,   214.815338,  -147.333679
    530,  -24.5196075,   214.815338,  -145.362534
    531,  -43.6757622,   214.815338,  -140.797394
    532,  -62.0525208,   214.815338,  -133.719711
    533,  -79.3219452,   214.815338,  -124.255806
    534,  -95.1758728,   214.815338,  -112.574554
    535,   -109.33139,   214.815338,  -98.8843994
    536,  -121.535873,   214.815338,   -83.429657
    537,  -131.571564,   214.815338,  -66.4861069
    538,  -139.259338,   214.815338,  -48.3561134
    539,  -144.462036,   214.815338,  -29.3632011
    540,  -147.086807,   214.815338,  -9.84630299
    541,  -147.086807,   214.815338,   9.84630299
    542,  -144.462036,   214.815338,   29.3632011
    543,  -139.259338,   214.815338,   48.3561134
    544,  -131.571564,   214.815338,   66.4861069
    545,  -121.535873,   214.815338,    83.429657
    546,   -109.33139,   214.815338,   98.8843994
    547,  -95.1758728,   214.815338,   112.574554
    548,  -79.3219452,   214.815338,   124.255806
    549,  -62.0525208,   214.815338,   133.719711
    550,  -43.6757622,   214.815338,   140.797394
    551,  -24.5196075,   214.815338,   145.362534
    552,  -4.92590237,   214.815338,   147.333679
    553,   14.7557077,   214.815338,   146.675644
    554,   34.1739998,   214.815338,   143.400192
    555,   52.9824562,   214.815338,    137.56575
    556,   70.8454437,   214.815338,   129.276443
    557,   87.4441833,   214.815338,   118.680206
    558,   102.482491,   214.815338,    105.96611
    559,   115.691986,   214.815338,   91.3610458
    560,    126.83696,   214.815338,   75.1256485
    561,   135.718521,   214.815338,   57.5496254
    562,   142.178192,   214.815338,   38.9466286
    563,   146.100677,   214.815338,   19.6486301
    564,      147.416,   214.815338,           0.
    565,   146.100677,   234.343994,  -19.6486301
    566,   142.178192,   234.343994,  -38.9466286
    567,   135.718521,   234.343994,  -57.5496254
    568,    126.83696,   234.343994,  -75.1256485
    569,   115.691986,   234.343994,  -91.3610458
    570,   102.482491,   234.343994,   -105.96611
    571,   87.4441833,   234.343994,  -118.680206
    572,   70.8454437,   234.343994,  -129.276443
    573,   52.9824562,   234.343994,   -137.56575
    574,   34.1739998,   234.343994,  -143.400192
    575,   14.7557077,   234.343994,  -146.675644
    576,  -4.92590237,   234.343994,  -147.333679
    577,  -24.5196075,   234.343994,  -145.362534
    578,  -43.6757622,   234.343994,  -140.797394
    579,  -62.0525208,   234.343994,  -133.719711
    580,  -79.3219452,   234.343994,  -124.255806
    581,  -95.1758728,   234.343994,  -112.574554
    582,   -109.33139,   234.343994,  -98.8843994
    583,  -121.535873,   234.343994,   -83.429657
    584,  -131.571564,   234.343994,  -66.4861069
    585,  -139.259338,   234.343994,  -48.3561134
    586,  -144.462036,   234.343994,  -29.3632011
    587,  -147.086807,   234.343994,  -9.84630299
    588,  -147.086807,   234.343994,   9.84630299
    589,  -144.462036,   234.343994,   29.3632011
    590,  -139.259338,   234.343994,   48.3561134
    591,  -131.571564,   234.343994,   66.4861069
    592,  -121.535873,   234.343994,    83.429657
    593,   -109.33139,   234.343994,   98.8843994
    594,  -95.1758728,   234.343994,   112.574554
    595,  -79.3219452,   234.343994,   124.255806
    596,  -62.0525208,   234.343994,   133.719711
    597,  -43.6757622,   234.343994,   140.797394
    598,  -24.5196075,   234.343994,   145.362534
    599,  -4.92590237,   234.343994,   147.333679
    600,   14.7557077,   234.343994,   146.675644
    601,   34.1739998,   234.343994,   143.400192
    602,   52.9824562,   234.343994,    137.56575
    603,   70.8454437,   234.343994,   129.276443
    604,   87.4441833,   234.343994,   118.680206
    605,   102.482491,   234.343994,    105.96611
    606,   115.691986,   234.343994,   91.3610458
    607,    126.83696,   234.343994,   75.1256485
    608,   135.718521,   234.343994,   57.5496254
    609,   142.178192,   234.343994,   38.9466286
    610,   146.100677,   234.343994,   19.6486301
    611,      147.416,   234.343994,           0.
    612,   146.100677,   253.872665,  -19.6486301
    613,   142.178192,   253.872665,  -38.9466286
    614,   135.718521,   253.872665,  -57.5496254
    615,    126.83696,   253.872665,  -75.1256485
    616,   115.691986,   253.872665,  -91.3610458
    617,   102.482491,   253.872665,   -105.96611
    618,   87.4441833,   253.872665,  -118.680206
    619,   70.8454437,   253.872665,  -129.276443
    620,   52.9824562,   253.872665,   -137.56575
    621,   34.1739998,   253.872665,  -143.400192
    622,   14.7557077,   253.872665,  -146.675644
    623,  -4.92590237,   253.872665,  -147.333679
    624,  -24.5196075,   253.872665,  -145.362534
    625,  -43.6757622,   253.872665,  -140.797394
    626,  -62.0525208,   253.872665,  -133.719711
    627,  -79.3219452,   253.872665,  -124.255806
    628,  -95.1758728,   253.872665,  -112.574554
    629,   -109.33139,   253.872665,  -98.8843994
    630,  -121.535873,   253.872665,   -83.429657
    631,  -131.571564,   253.872665,  -66.4861069
    632,  -139.259338,   253.872665,  -48.3561134
    633,  -144.462036,   253.872665,  -29.3632011
    634,  -147.086807,   253.872665,  -9.84630299
    635,  -147.086807,   253.872665,   9.84630299
    636,  -144.462036,   253.872665,   29.3632011
    637,  -139.259338,   253.872665,   48.3561134
    638,  -131.571564,   253.872665,   66.4861069
    639,  -121.535873,   253.872665,    83.429657
    640,   -109.33139,   253.872665,   98.8843994
    641,  -95.1758728,   253.872665,   112.574554
    642,  -79.3219452,   253.872665,   124.255806
    643,  -62.0525208,   253.872665,   133.719711
    644,  -43.6757622,   253.872665,   140.797394
    645,  -24.5196075,   253.872665,   145.362534
    646,  -4.92590237,   253.872665,   147.333679
    647,   14.7557077,   253.872665,   146.675644
    648,   34.1739998,   253.872665,   143.400192
    649,   52.9824562,   253.872665,    137.56575
    650,   70.8454437,   253.872665,   129.276443
    651,   87.4441833,   253.872665,   118.680206
    652,   102.482491,   253.872665,    105.96611
    653,   115.691986,   253.872665,   91.3610458
    654,    126.83696,   253.872665,   75.1256485
    655,   135.718521,   253.872665,   57.5496254
    656,   142.178192,   253.872665,   38.9466286
    657,   146.100677,   253.872665,   19.6486301
    658,      147.416,   253.872665,           0.
    659,   146.100677,   273.401337,  -19.6486301
    660,   142.178192,   273.401337,  -38.9466286
    661,   135.718521,   273.401337,  -57.5496254
    662,    126.83696,   273.401337,  -75.1256485
    663,   115.691986,   273.401337,  -91.3610458
    664,   102.482491,   273.401337,   -105.96611
    665,   87.4441833,   273.401337,  -118.680206
    666,   70.8454437,   273.401337,  -129.276443
    667,   52.9824562,   273.401337,   -137.56575
    668,   34.1739998,   273.401337,  -143.400192
    669,   14.7557077,   273.401337,  -146.675644
    670,  -4.92590237,   273.401337,  -147.333679
    671,  -24.5196075,   273.401337,  -145.362534
    672,  -43.6757622,   273.401337,  -140.797394
    673,  -62.0525208,   273.401337,  -133.719711
    674,  -79.3219452,   273.401337,  -124.255806
    675,  -95.1758728,   273.401337,  -112.574554
    676,   -109.33139,   273.401337,  -98.8843994
    677,  -121.535873,   273.401337,   -83.429657
    678,  -131.571564,   273.401337,  -66.4861069
    679,  -139.259338,   273.401337,  -48.3561134
    680,  -144.462036,   273.401337,  -29.3632011
    681,  -147.086807,   273.401337,  -9.84630299
    682,  -147.086807,   273.401337,   9.84630299
    683,  -144.462036,   273.401337,   29.3632011
    684,  -139.259338,   273.401337,   48.3561134
    685,  -131.571564,   273.401337,   66.4861069
    686,  -121.535873,   273.401337,    83.429657
    687,   -109.33139,   273.401337,   98.8843994
    688,  -95.1758728,   273.401337,   112.574554
    689,  -79.3219452,   273.401337,   124.255806
    690,  -62.0525208,   273.401337,   133.719711
    691,  -43.6757622,   273.401337,   140.797394
    692,  -24.5196075,   273.401337,   145.362534
    693,  -4.92590237,   273.401337,   147.333679
    694,   14.7557077,   273.401337,   146.675644
    695,   34.1739998,   273.401337,   143.400192
    696,   52.9824562,   273.401337,    137.56575
    697,   70.8454437,   273.401337,   129.276443
    698,   87.4441833,   273.401337,   118.680206
    699,   102.482491,   273.401337,    105.96611
    700,   115.691986,   273.401337,   91.3610458
    701,    126.83696,   273.401337,   75.1256485
    702,   135.718521,   273.401337,   57.5496254
    703,   142.178192,   273.401337,   38.9466286
    704,   146.100677,   273.401337,   19.6486301
    705,      147.416,   273.401337,           0.
    706,   146.100677,   292.929993,  -19.6486301
    707,   142.178192,   292.929993,  -38.9466286
    708,   135.718521,   292.929993,  -57.5496254
    709,    126.83696,   292.929993,  -75.1256485
    710,   115.691986,   292.929993,  -91.3610458
    711,   102.482491,   292.929993,   -105.96611
    712,   87.4441833,   292.929993,  -118.680206
    713,   70.8454437,   292.929993,  -129.276443
    714,   52.9824562,   292.929993,   -137.56575
    715,   34.1739998,   292.929993,  -143.400192
    716,   14.7557077,   292.929993,  -146.675644
    717,  -4.92590237,   292.929993,  -147.333679
    718,  -24.5196075,   292.929993,  -145.362534
    719,  -43.6757622,   292.929993,  -140.797394
    720,  -62.0525208,   292.929993,  -133.719711
    721,  -79.3219452,   292.929993,  -124.255806
    722,  -95.1758728,   292.929993,  -112.574554
    723,   -109.33139,   292.929993,  -98.8843994
    724,  -121.535873,   292.929993,   -83.429657
    725,  -131.571564,   292.929993,  -66.4861069
    726,  -139.259338,   292.929993,  -48.3561134
    727,  -144.462036,   292.929993,  -29.3632011
    728,  -147.086807,   292.929993,  -9.84630299
    729,  -147.086807,   292.929993,   9.84630299
    730,  -144.462036,   292.929993,   29.3632011
    731,  -139.259338,   292.929993,   48.3561134
    732,  -131.571564,   292.929993,   66.4861069
    733,  -121.535873,   292.929993,    83.429657
    734,   -109.33139,   292.929993,   98.8843994
    735,  -95.1758728,   292.929993,   112.574554
    736,  -79.3219452,   292.929993,   124.255806
    737,  -62.0525208,   292.929993,   133.719711
    738,  -43.6757622,   292.929993,   140.797394
    739,  -24.5196075,   292.929993,   145.362534
    740,  -4.92590237,   292.929993,   147.333679
    741,   14.7557077,   292.929993,   146.675644
    742,   34.1739998,   292.929993,   143.400192
    743,   52.9824562,   292.929993,    137.56575
    744,   70.8454437,   292.929993,   129.276443
    745,   87.4441833,   292.929993,   118.680206
    746,   102.482491,   292.929993,    105.96611
    747,   115.691986,   292.929993,   91.3610458
    748,    126.83696,   292.929993,   75.1256485
    749,   135.718521,   292.929993,   57.5496254
    750,   142.178192,   292.929993,   38.9466286
    751,   146.100677,   292.929993,   19.6486301
    752,      147.416,   292.929993,           0.
    753,   146.100677,   312.458679,  -19.6486301
    754,   142.178192,   312.458679,  -38.9466286
    755,   135.718521,   312.458679,  -57.5496254
    756,    126.83696,   312.458679,  -75.1256485
    757,   115.691986,   312.458679,  -91.3610458
    758,   102.482491,   312.458679,   -105.96611
    759,   87.4441833,   312.458679,  -118.680206
    760,   70.8454437,   312.458679,  -129.276443
    761,   52.9824562,   312.458679,   -137.56575
    762,   34.1739998,   312.458679,  -143.400192
    763,   14.7557077,   312.458679,  -146.675644
    764,  -4.92590237,   312.458679,  -147.333679
    765,  -24.5196075,   312.458679,  -145.362534
    766,  -43.6757622,   312.458679,  -140.797394
    767,  -62.0525208,   312.458679,  -133.719711
    768,  -79.3219452,   312.458679,  -124.255806
    769,  -95.1758728,   312.458679,  -112.574554
    770,   -109.33139,   312.458679,  -98.8843994
    771,  -121.535873,   312.458679,   -83.429657
    772,  -131.571564,   312.458679,  -66.4861069
    773,  -139.259338,   312.458679,  -48.3561134
    774,  -144.462036,   312.458679,  -29.3632011
    775,  -147.086807,   312.458679,  -9.84630299
    776,  -147.086807,   312.458679,   9.84630299
    777,  -144.462036,   312.458679,   29.3632011
    778,  -139.259338,   312.458679,   48.3561134
    779,  -131.571564,   312.458679,   66.4861069
    780,  -121.535873,   312.458679,    83.429657
    781,   -109.33139,   312.458679,   98.8843994
    782,  -95.1758728,   312.458679,   112.574554
    783,  -79.3219452,   312.458679,   124.255806
    784,  -62.0525208,   312.458679,   133.719711
    785,  -43.6757622,   312.458679,   140.797394
    786,  -24.5196075,   312.458679,   145.362534
    787,  -4.92590237,   312.458679,   147.333679
    788,   14.7557077,   312.458679,   146.675644
    789,   34.1739998,   312.458679,   143.400192
    790,   52.9824562,   312.458679,    137.56575
    791,   70.8454437,   312.458679,   129.276443
    792,   87.4441833,   312.458679,   118.680206
    793,   102.482491,   312.458679,    105.96611
    794,   115.691986,   312.458679,   91.3610458
    795,    126.83696,   312.458679,   75.1256485
    796,   135.718521,   312.458679,   57.5496254
    797,   142.178192,   312.458679,   38.9466286
    798,   146.100677,   312.458679,   19.6486301
    799,      147.416,   312.458679,           0.
    800,   146.100677,   331.987335,  -19.6486301
    801,   142.178192,   331.987335,  -38.9466286
    802,   135.718521,   331.987335,  -57.5496254
    803,    126.83696,   331.987335,  -75.1256485
    804,   115.691986,   331.987335,  -91.3610458
    805,   102.482491,   331.987335,   -105.96611
    806,   87.4441833,   331.987335,  -118.680206
    807,   70.8454437,   331.987335,  -129.276443
    808,   52.9824562,   331.987335,   -137.56575
    809,   34.1739998,   331.987335,  -143.400192
    810,   14.7557077,   331.987335,  -146.675644
    811,  -4.92590237,   331.987335,  -147.333679
    812,  -24.5196075,   331.987335,  -145.362534
    813,  -43.6757622,   331.987335,  -140.797394
    814,  -62.0525208,   331.987335,  -133.719711
    815,  -79.3219452,   331.987335,  -124.255806
    816,  -95.1758728,   331.987335,  -112.574554
    817,   -109.33139,   331.987335,  -98.8843994
    818,  -121.535873,   331.987335,   -83.429657
    819,  -131.571564,   331.987335,  -66.4861069
    820,  -139.259338,   331.987335,  -48.3561134
    821,  -144.462036,   331.987335,  -29.3632011
    822,  -147.086807,   331.987335,  -9.84630299
    823,  -147.086807,   331.987335,   9.84630299
    824,  -144.462036,   331.987335,   29.3632011
    825,  -139.259338,   331.987335,   48.3561134
    826,  -131.571564,   331.987335,   66.4861069
    827,  -121.535873,   331.987335,    83.429657
    828,   -109.33139,   331.987335,   98.8843994
    829,  -95.1758728,   331.987335,   112.574554
    830,  -79.3219452,   331.987335,   124.255806
    831,  -62.0525208,   331.987335,   133.719711
    832,  -43.6757622,   331.987335,   140.797394
    833,  -24.5196075,   331.987335,   145.362534
    834,  -4.92590237,   331.987335,   147.333679
    835,   14.7557077,   331.987335,   146.675644
    836,   34.1739998,   331.987335,   143.400192
    837,   52.9824562,   331.987335,    137.56575
    838,   70.8454437,   331.987335,   129.276443
    839,   87.4441833,   331.987335,   118.680206
    840,   102.482491,   331.987335,    105.96611
    841,   115.691986,   331.987335,   91.3610458
    842,    126.83696,   331.987335,   75.1256485
    843,   135.718521,   331.987335,   57.5496254
    844,   142.178192,   331.987335,   38.9466286
    845,   146.100677,   331.987335,   19.6486301
    846,      147.416,   331.987335,           0.
    847,   146.100677,   351.515991,  -19.6486301
    848,   142.178192,   351.515991,  -38.9466286
    849,   135.718521,   351.515991,  -57.5496254
    850,    126.83696,   351.515991,  -75.1256485
    851,   115.691986,   351.515991,  -91.3610458
    852,   102.482491,   351.515991,   -105.96611
    853,   87.4441833,   351.515991,  -118.680206
    854,   70.8454437,   351.515991,  -129.276443
    855,   52.9824562,   351.515991,   -137.56575
    856,   34.1739998,   351.515991,  -143.400192
    857,   14.7557077,   351.515991,  -146.675644
    858,  -4.92590237,   351.515991,  -147.333679
    859,  -24.5196075,   351.515991,  -145.362534
    860,  -43.6757622,   351.515991,  -140.797394
    861,  -62.0525208,   351.515991,  -133.719711
    862,  -79.3219452,   351.515991,  -124.255806
    863,  -95.1758728,   351.515991,  -112.574554
    864,   -109.33139,   351.515991,  -98.8843994
    865,  -121.535873,   351.515991,   -83.429657
    866,  -131.571564,   351.515991,  -66.4861069
    867,  -139.259338,   351.515991,  -48.3561134
    868,  -144.462036,   351.515991,  -29.3632011
    869,  -147.086807,   351.515991,  -9.84630299
    870,  -147.086807,   351.515991,   9.84630299
    871,  -144.462036,   351.515991,   29.3632011
    872,  -139.259338,   351.515991,   48.3561134
    873,  -131.571564,   351.515991,   66.4861069
    874,  -121.535873,   351.515991,    83.429657
    875,   -109.33139,   351.515991,   98.8843994
    876,  -95.1758728,   351.515991,   112.574554
    877,  -79.3219452,   351.515991,   124.255806
    878,  -62.0525208,   351.515991,   133.719711
    879,  -43.6757622,   351.515991,   140.797394
    880,  -24.5196075,   351.515991,   145.362534
    881,  -4.92590237,   351.515991,   147.333679
    882,   14.7557077,   351.515991,   146.675644
    883,   34.1739998,   351.515991,   143.400192
    884,   52.9824562,   351.515991,    137.56575
    885,   70.8454437,   351.515991,   129.276443
    886,   87.4441833,   351.515991,   118.680206
    887,   102.482491,   351.515991,    105.96611
    888,   115.691986,   351.515991,   91.3610458
    889,    126.83696,   351.515991,   75.1256485
    890,   135.718521,   351.515991,   57.5496254
    891,   142.178192,   351.515991,   38.9466286
    892,   146.100677,   351.515991,   19.6486301
    893,      147.416,   351.515991,           0.
    894,   146.100677,   371.044678,  -19.6486301
    895,   142.178192,   371.044678,  -38.9466286
    896,   135.718521,   371.044678,  -57.5496254
    897,    126.83696,   371.044678,  -75.1256485
    898,   115.691986,   371.044678,  -91.3610458
    899,   102.482491,   371.044678,   -105.96611
    900,   87.4441833,   371.044678,  -118.680206
    901,   70.8454437,   371.044678,  -129.276443
    902,   52.9824562,   371.044678,   -137.56575
    903,   34.1739998,   371.044678,  -143.400192
    904,   14.7557077,   371.044678,  -146.675644
    905,  -4.92590237,   371.044678,  -147.333679
    906,  -24.5196075,   371.044678,  -145.362534
    907,  -43.6757622,   371.044678,  -140.797394
    908,  -62.0525208,   371.044678,  -133.719711
    909,  -79.3219452,   371.044678,  -124.255806
    910,  -95.1758728,   371.044678,  -112.574554
    911,   -109.33139,   371.044678,  -98.8843994
    912,  -121.535873,   371.044678,   -83.429657
    913,  -131.571564,   371.044678,  -66.4861069
    914,  -139.259338,   371.044678,  -48.3561134
    915,  -144.462036,   371.044678,  -29.3632011
    916,  -147.086807,   371.044678,  -9.84630299
    917,  -147.086807,   371.044678,   9.84630299
    918,  -144.462036,   371.044678,   29.3632011
    919,  -139.259338,   371.044678,   48.3561134
    920,  -131.571564,   371.044678,   66.4861069
    921,  -121.535873,   371.044678,    83.429657
    922,   -109.33139,   371.044678,   98.8843994
    923,  -95.1758728,   371.044678,   112.574554
    924,  -79.3219452,   371.044678,   124.255806
    925,  -62.0525208,   371.044678,   133.719711
    926,  -43.6757622,   371.044678,   140.797394
    927,  -24.5196075,   371.044678,   145.362534
    928,  -4.92590237,   371.044678,   147.333679
    929,   14.7557077,   371.044678,   146.675644
    930,   34.1739998,   371.044678,   143.400192
    931,   52.9824562,   371.044678,    137.56575
    932,   70.8454437,   371.044678,   129.276443
    933,   87.4441833,   371.044678,   118.680206
    934,   102.482491,   371.044678,    105.96611
    935,   115.691986,   371.044678,   91.3610458
    936,    126.83696,   371.044678,   75.1256485
    937,   135.718521,   371.044678,   57.5496254
    938,   142.178192,   371.044678,   38.9466286
    939,   146.100677,   371.044678,   19.6486301
    940,      147.416,   371.044678,           0.
    941,   146.100677,   390.573334,  -19.6486301
    942,   142.178192,   390.573334,  -38.9466286
    943,   135.718521,   390.573334,  -57.5496254
    944,    126.83696,   390.573334,  -75.1256485
    945,   115.691986,   390.573334,  -91.3610458
    946,   102.482491,   390.573334,   -105.96611
    947,   87.4441833,   390.573334,  -118.680206
    948,   70.8454437,   390.573334,  -129.276443
    949,   52.9824562,   390.573334,   -137.56575
    950,   34.1739998,   390.573334,  -143.400192
    951,   14.7557077,   390.573334,  -146.675644
    952,  -4.92590237,   390.573334,  -147.333679
    953,  -24.5196075,   390.573334,  -145.362534
    954,  -43.6757622,   390.573334,  -140.797394
    955,  -62.0525208,   390.573334,  -133.719711
    956,  -79.3219452,   390.573334,  -124.255806
    957,  -95.1758728,   390.573334,  -112.574554
    958,   -109.33139,   390.573334,  -98.8843994
    959,  -121.535873,   390.573334,   -83.429657
    960,  -131.571564,   390.573334,  -66.4861069
    961,  -139.259338,   390.573334,  -48.3561134
    962,  -144.462036,   390.573334,  -29.3632011
    963,  -147.086807,   390.573334,  -9.84630299
    964,  -147.086807,   390.573334,   9.84630299
    965,  -144.462036,   390.573334,   29.3632011
    966,  -139.259338,   390.573334,   48.3561134
    967,  -131.571564,   390.573334,   66.4861069
    968,  -121.535873,   390.573334,    83.429657
    969,   -109.33139,   390.573334,   98.8843994
    970,  -95.1758728,   390.573334,   112.574554
    971,  -79.3219452,   390.573334,   124.255806
    972,  -62.0525208,   390.573334,   133.719711
    973,  -43.6757622,   390.573334,   140.797394
    974,  -24.5196075,   390.573334,   145.362534
    975,  -4.92590237,   390.573334,   147.333679
    976,   14.7557077,   390.573334,   146.675644
    977,   34.1739998,   390.573334,   143.400192
    978,   52.9824562,   390.573334,    137.56575
    979,   70.8454437,   390.573334,   129.276443
    980,   87.4441833,   390.573334,   118.680206
    981,   102.482491,   390.573334,    105.96611
    982,   115.691986,   390.573334,   91.3610458
    983,    126.83696,   390.573334,   75.1256485
    984,   135.718521,   390.573334,   57.5496254
    985,   142.178192,   390.573334,   38.9466286
    986,   146.100677,   390.573334,   19.6486301
    987,      147.416,   390.573334,           0.
    988,   146.100677,    410.10199,  -19.6486301
    989,   142.178192,    410.10199,  -38.9466286
    990,   135.718521,    410.10199,  -57.5496254
    991,    126.83696,    410.10199,  -75.1256485
    992,   115.691986,    410.10199,  -91.3610458
    993,   102.482491,    410.10199,   -105.96611
    994,   87.4441833,    410.10199,  -118.680206
    995,   70.8454437,    410.10199,  -129.276443
    996,   52.9824562,    410.10199,   -137.56575
    997,   34.1739998,    410.10199,  -143.400192
    998,   14.7557077,    410.10199,  -146.675644
    999,  -4.92590237,    410.10199,  -147.333679
   1000,  -24.5196075,    410.10199,  -145.362534
   1001,  -43.6757622,    410.10199,  -140.797394
   1002,  -62.0525208,    410.10199,  -133.719711
   1003,  -79.3219452,    410.10199,  -124.255806
   1004,  -95.1758728,    410.10199,  -112.574554
   1005,   -109.33139,    410.10199,  -98.8843994
   1006,  -121.535873,    410.10199,   -83.429657
   1007,  -131.571564,    410.10199,  -66.4861069
   1008,  -139.259338,    410.10199,  -48.3561134
   1009,  -144.462036,    410.10199,  -29.3632011
   1010,  -147.086807,    410.10199,  -9.84630299
   1011,  -147.086807,    410.10199,   9.84630299
   1012,  -144.462036,    410.10199,   29.3632011
   1013,  -139.259338,    410.10199,   48.3561134
   1014,  -131.571564,    410.10199,   66.4861069
   1015,  -121.535873,    410.10199,    83.429657
   1016,   -109.33139,    410.10199,   98.8843994
   1017,  -95.1758728,    410.10199,   112.574554
   1018,  -79.3219452,    410.10199,   124.255806
   1019,  -62.0525208,    410.10199,   133.719711
   1020,  -43.6757622,    410.10199,   140.797394
   1021,  -24.5196075,    410.10199,   145.362534
   1022,  -4.92590237,    410.10199,   147.333679
   1023,   14.7557077,    410.10199,   146.675644
   1024,   34.1739998,    410.10199,   143.400192
   1025,   52.9824562,    410.10199,    137.56575
   1026,   70.8454437,    410.10199,   129.276443
   1027,   87.4441833,    410.10199,   118.680206
   1028,   102.482491,    410.10199,    105.96611
   1029,   115.691986,    410.10199,   91.3610458
   1030,    126.83696,    410.10199,   75.1256485
   1031,   135.718521,    410.10199,   57.5496254
   1032,   142.178192,    410.10199,   38.9466286
   1033,   146.100677,    410.10199,   19.6486301
   1034,      147.416,    410.10199,           0.
   1035,   146.100677,   429.630676,  -19.6486301
   1036,   142.178192,   429.630676,  -38.9466286
   1037,   135.718521,   429.630676,  -57.5496254
   1038,    126.83696,   429.630676,  -75.1256485
   1039,   115.691986,   429.630676,  -91.3610458
   1040,   102.482491,   429.630676,   -105.96611
   1041,   87.4441833,   429.630676,  -118.680206
   1042,   70.8454437,   429.630676,  -129.276443
   1043,   52.9824562,   429.630676,   -137.56575
   1044,   34.1739998,   429.630676,  -143.400192
   1045,   14.7557077,   429.630676,  -146.675644
   1046,  -4.92590237,   429.630676,  -147.333679
   1047,  -24.5196075,   429.630676,  -145.362534
   1048,  -43.6757622,   429.630676,  -140.797394
   1049,  -62.0525208,   429.630676,  -133.719711
   1050,  -79.3219452,   429.630676,  -124.255806
   1051,  -95.1758728,   429.630676,  -112.574554
   1052,   -109.33139,   429.630676,  -98.8843994
   1053,  -121.535873,   429.630676,   -83.429657
   1054,  -131.571564,   429.630676,  -66.4861069
   1055,  -139.259338,   429.630676,  -48.3561134
   1056,  -144.462036,   429.630676,  -29.3632011
   1057,  -147.086807,   429.630676,  -9.84630299
   1058,  -147.086807,   429.630676,   9.84630299
   1059,  -144.462036,   429.630676,   29.3632011
   1060,  -139.259338,   429.630676,   48.3561134
   1061,  -131.571564,   429.630676,   66.4861069
   1062,  -121.535873,   429.630676,    83.429657
   1063,   -109.33139,   429.630676,   98.8843994
   1064,  -95.1758728,   429.630676,   112.574554
   1065,  -79.3219452,   429.630676,   124.255806
   1066,  -62.0525208,   429.630676,   133.719711
   1067,  -43.6757622,   429.630676,   140.797394
   1068,  -24.5196075,   429.630676,   145.362534
   1069,  -4.92590237,   429.630676,   147.333679
   1070,   14.7557077,   429.630676,   146.675644
   1071,   34.1739998,   429.630676,   143.400192
   1072,   52.9824562,   429.630676,    137.56575
   1073,   70.8454437,   429.630676,   129.276443
   1074,   87.4441833,   429.630676,   118.680206
   1075,   102.482491,   429.630676,    105.96611
   1076,   115.691986,   429.630676,   91.3610458
   1077,    126.83696,   429.630676,   75.1256485
   1078,   135.718521,   429.630676,   57.5496254
   1079,   142.178192,   429.630676,   38.9466286
   1080,   146.100677,   429.630676,   19.6486301
   1081,      147.416,   429.630676,           0.
   1082,   146.100677,   449.159332,  -19.6486301
   1083,   142.178192,   449.159332,  -38.9466286
   1084,   135.718521,   449.159332,  -57.5496254
   1085,    126.83696,   449.159332,  -75.1256485
   1086,   115.691986,   449.159332,  -91.3610458
   1087,   102.482491,   449.159332,   -105.96611
   1088,   87.4441833,   449.159332,  -118.680206
   1089,   70.8454437,   449.159332,  -129.276443
   1090,   52.9824562,   449.159332,   -137.56575
   1091,   34.1739998,   449.159332,  -143.400192
   1092,   14.7557077,   449.159332,  -146.675644
   1093,  -4.92590237,   449.159332,  -147.333679
   1094,  -24.5196075,   449.159332,  -145.362534
   1095,  -43.6757622,   449.159332,  -140.797394
   1096,  -62.0525208,   449.159332,  -133.719711
   1097,  -79.3219452,   449.159332,  -124.255806
   1098,  -95.1758728,   449.159332,  -112.574554
   1099,   -109.33139,   449.159332,  -98.8843994
   1100,  -121.535873,   449.159332,   -83.429657
   1101,  -131.571564,   449.159332,  -66.4861069
   1102,  -139.259338,   449.159332,  -48.3561134
   1103,  -144.462036,   449.159332,  -29.3632011
   1104,  -147.086807,   449.159332,  -9.84630299
   1105,  -147.086807,   449.159332,   9.84630299
   1106,  -144.462036,   449.159332,   29.3632011
   1107,  -139.259338,   449.159332,   48.3561134
   1108,  -131.571564,   449.159332,   66.4861069
   1109,  -121.535873,   449.159332,    83.429657
   1110,   -109.33139,   449.159332,   98.8843994
   1111,  -95.1758728,   449.159332,   112.574554
   1112,  -79.3219452,   449.159332,   124.255806
   1113,  -62.0525208,   449.159332,   133.719711
   1114,  -43.6757622,   449.159332,   140.797394
   1115,  -24.5196075,   449.159332,   145.362534
   1116,  -4.92590237,   449.159332,   147.333679
   1117,   14.7557077,   449.159332,   146.675644
   1118,   34.1739998,   449.159332,   143.400192
   1119,   52.9824562,   449.159332,    137.56575
   1120,   70.8454437,   449.159332,   129.276443
   1121,   87.4441833,   449.159332,   118.680206
   1122,   102.482491,   449.159332,    105.96611
   1123,   115.691986,   449.159332,   91.3610458
   1124,    126.83696,   449.159332,   75.1256485
   1125,   135.718521,   449.159332,   57.5496254
   1126,   142.178192,   449.159332,   38.9466286
   1127,   146.100677,   449.159332,   19.6486301
   1128,      147.416,   449.159332,           0.
   1129,   146.100677,   468.687988,  -19.6486301
   1130,   142.178192,   468.687988,  -38.9466286
   1131,   135.718521,   468.687988,  -57.5496254
   1132,    126.83696,   468.687988,  -75.1256485
   1133,   115.691986,   468.687988,  -91.3610458
   1134,   102.482491,   468.687988,   -105.96611
   1135,   87.4441833,   468.687988,  -118.680206
   1136,   70.8454437,   468.687988,  -129.276443
   1137,   52.9824562,   468.687988,   -137.56575
   1138,   34.1739998,   468.687988,  -143.400192
   1139,   14.7557077,   468.687988,  -146.675644
   1140,  -4.92590237,   468.687988,  -147.333679
   1141,  -24.5196075,   468.687988,  -145.362534
   1142,  -43.6757622,   468.687988,  -140.797394
   1143,  -62.0525208,   468.687988,  -133.719711
   1144,  -79.3219452,   468.687988,  -124.255806
   1145,  -95.1758728,   468.687988,  -112.574554
   1146,   -109.33139,   468.687988,  -98.8843994
   1147,  -121.535873,   468.687988,   -83.429657
   1148,  -131.571564,   468.687988,  -66.4861069
   1149,  -139.259338,   468.687988,  -48.3561134
   1150,  -144.462036,   468.687988,  -29.3632011
   1151,  -147.086807,   468.687988,  -9.84630299
   1152,  -147.086807,   468.687988,   9.84630299
   1153,  -144.462036,   468.687988,   29.3632011
   1154,  -139.259338,   468.687988,   48.3561134
   1155,  -131.571564,   468.687988,   66.4861069
   1156,  -121.535873,   468.687988,    83.429657
   1157,   -109.33139,   468.687988,   98.8843994
   1158,  -95.1758728,   468.687988,   112.574554
   1159,  -79.3219452,   468.687988,   124.255806
   1160,  -62.0525208,   468.687988,   133.719711
   1161,  -43.6757622,   468.687988,   140.797394
   1162,  -24.5196075,   468.687988,   145.362534
   1163,  -4.92590237,   468.687988,   147.333679
   1164,   14.7557077,   468.687988,   146.675644
   1165,   34.1739998,   468.687988,   143.400192
   1166,   52.9824562,   468.687988,    137.56575
   1167,   70.8454437,   468.687988,   129.276443
   1168,   87.4441833,   468.687988,   118.680206
   1169,   102.482491,   468.687988,    105.96611
   1170,   115.691986,   468.687988,   91.3610458
   1171,    126.83696,   468.687988,   75.1256485
   1172,   135.718521,   468.687988,   57.5496254
   1173,   142.178192,   468.687988,   38.9466286
   1174,   146.100677,   468.687988,   19.6486301
   1175,      147.416,   468.687988,           0.
   1176,   146.100677,   488.216675,  -19.6486301
   1177,   142.178192,   488.216675,  -38.9466286
   1178,   135.718521,   488.216675,  -57.5496254
   1179,    126.83696,   488.216675,  -75.1256485
   1180,   115.691986,   488.216675,  -91.3610458
   1181,   102.482491,   488.216675,   -105.96611
   1182,   87.4441833,   488.216675,  -118.680206
   1183,   70.8454437,   488.216675,  -129.276443
   1184,   52.9824562,   488.216675,   -137.56575
   1185,   34.1739998,   488.216675,  -143.400192
   1186,   14.7557077,   488.216675,  -146.675644
   1187,  -4.92590237,   488.216675,  -147.333679
   1188,  -24.5196075,   488.216675,  -145.362534
   1189,  -43.6757622,   488.216675,  -140.797394
   1190,  -62.0525208,   488.216675,  -133.719711
   1191,  -79.3219452,   488.216675,  -124.255806
   1192,  -95.1758728,   488.216675,  -112.574554
   1193,   -109.33139,   488.216675,  -98.8843994
   1194,  -121.535873,   488.216675,   -83.429657
   1195,  -131.571564,   488.216675,  -66.4861069
   1196,  -139.259338,   488.216675,  -48.3561134
   1197,  -144.462036,   488.216675,  -29.3632011
   1198,  -147.086807,   488.216675,  -9.84630299
   1199,  -147.086807,   488.216675,   9.84630299
   1200,  -144.462036,   488.216675,   29.3632011
   1201,  -139.259338,   488.216675,   48.3561134
   1202,  -131.571564,   488.216675,   66.4861069
   1203,  -121.535873,   488.216675,    83.429657
   1204,   -109.33139,   488.216675,   98.8843994
   1205,  -95.1758728,   488.216675,   112.574554
   1206,  -79.3219452,   488.216675,   124.255806
   1207,  -62.0525208,   488.216675,   133.719711
   1208,  -43.6757622,   488.216675,   140.797394
   1209,  -24.5196075,   488.216675,   145.362534
   1210,  -4.92590237,   488.216675,   147.333679
   1211,   14.7557077,   488.216675,   146.675644
   1212,   34.1739998,   488.216675,   143.400192
   1213,   52.9824562,   488.216675,    137.56575
   1214,   70.8454437,   488.216675,   129.276443
   1215,   87.4441833,   488.216675,   118.680206
   1216,   102.482491,   488.216675,    105.96611
   1217,   115.691986,   488.216675,   91.3610458
   1218,    126.83696,   488.216675,   75.1256485
   1219,   135.718521,   488.216675,   57.5496254
   1220,   142.178192,   488.216675,   38.9466286
   1221,   146.100677,   488.216675,   19.6486301
   1222,      147.416,   488.216675,           0.
   1223,   146.100677,   507.745331,  -19.6486301
   1224,   142.178192,   507.745331,  -38.9466286
   1225,   135.718521,   507.745331,  -57.5496254
   1226,    126.83696,   507.745331,  -75.1256485
   1227,   115.691986,   507.745331,  -91.3610458
   1228,   102.482491,   507.745331,   -105.96611
   1229,   87.4441833,   507.745331,  -118.680206
   1230,   70.8454437,   507.745331,  -129.276443
   1231,   52.9824562,   507.745331,   -137.56575
   1232,   34.1739998,   507.745331,  -143.400192
   1233,   14.7557077,   507.745331,  -146.675644
   1234,  -4.92590237,   507.745331,  -147.333679
   1235,  -24.5196075,   507.745331,  -145.362534
   1236,  -43.6757622,   507.745331,  -140.797394
   1237,  -62.0525208,   507.745331,  -133.719711
   1238,  -79.3219452,   507.745331,  -124.255806
   1239,  -95.1758728,   507.745331,  -112.574554
   1240,   -109.33139,   507.745331,  -98.8843994
   1241,  -121.535873,   507.745331,   -83.429657
   1242,  -131.571564,   507.745331,  -66.4861069
   1243,  -139.259338,   507.745331,  -48.3561134
   1244,  -144.462036,   507.745331,  -29.3632011
   1245,  -147.086807,   507.745331,  -9.84630299
   1246,  -147.086807,   507.745331,   9.84630299
   1247,  -144.462036,   507.745331,   29.3632011
   1248,  -139.259338,   507.745331,   48.3561134
   1249,  -131.571564,   507.745331,   66.4861069
   1250,  -121.535873,   507.745331,    83.429657
   1251,   -109.33139,   507.745331,   98.8843994
   1252,  -95.1758728,   507.745331,   112.574554
   1253,  -79.3219452,   507.745331,   124.255806
   1254,  -62.0525208,   507.745331,   133.719711
   1255,  -43.6757622,   507.745331,   140.797394
   1256,  -24.5196075,   507.745331,   145.362534
   1257,  -4.92590237,   507.745331,   147.333679
   1258,   14.7557077,   507.745331,   146.675644
   1259,   34.1739998,   507.745331,   143.400192
   1260,   52.9824562,   507.745331,    137.56575
   1261,   70.8454437,   507.745331,   129.276443
   1262,   87.4441833,   507.745331,   118.680206
   1263,   102.482491,   507.745331,    105.96611
   1264,   115.691986,   507.745331,   91.3610458
   1265,    126.83696,   507.745331,   75.1256485
   1266,   135.718521,   507.745331,   57.5496254
   1267,   142.178192,   507.745331,   38.9466286
   1268,   146.100677,   507.745331,   19.6486301
   1269,      147.416,   507.745331,           0.
   1270,   146.100677,   527.273987,  -19.6486301
   1271,   142.178192,   527.273987,  -38.9466286
   1272,   135.718521,   527.273987,  -57.5496254
   1273,    126.83696,   527.273987,  -75.1256485
   1274,   115.691986,   527.273987,  -91.3610458
   1275,   102.482491,   527.273987,   -105.96611
   1276,   87.4441833,   527.273987,  -118.680206
   1277,   70.8454437,   527.273987,  -129.276443
   1278,   52.9824562,   527.273987,   -137.56575
   1279,   34.1739998,   527.273987,  -143.400192
   1280,   14.7557077,   527.273987,  -146.675644
   1281,  -4.92590237,   527.273987,  -147.333679
   1282,  -24.5196075,   527.273987,  -145.362534
   1283,  -43.6757622,   527.273987,  -140.797394
   1284,  -62.0525208,   527.273987,  -133.719711
   1285,  -79.3219452,   527.273987,  -124.255806
   1286,  -95.1758728,   527.273987,  -112.574554
   1287,   -109.33139,   527.273987,  -98.8843994
   1288,  -121.535873,   527.273987,   -83.429657
   1289,  -131.571564,   527.273987,  -66.4861069
   1290,  -139.259338,   527.273987,  -48.3561134
   1291,  -144.462036,   527.273987,  -29.3632011
   1292,  -147.086807,   527.273987,  -9.84630299
   1293,  -147.086807,   527.273987,   9.84630299
   1294,  -144.462036,   527.273987,   29.3632011
   1295,  -139.259338,   527.273987,   48.3561134
   1296,  -131.571564,   527.273987,   66.4861069
   1297,  -121.535873,   527.273987,    83.429657
   1298,   -109.33139,   527.273987,   98.8843994
   1299,  -95.1758728,   527.273987,   112.574554
   1300,  -79.3219452,   527.273987,   124.255806
   1301,  -62.0525208,   527.273987,   133.719711
   1302,  -43.6757622,   527.273987,   140.797394
   1303,  -24.5196075,   527.273987,   145.362534
   1304,  -4.92590237,   527.273987,   147.333679
   1305,   14.7557077,   527.273987,   146.675644
   1306,   34.1739998,   527.273987,   143.400192
   1307,   52.9824562,   527.273987,    137.56575
   1308,   70.8454437,   527.273987,   129.276443
   1309,   87.4441833,   527.273987,   118.680206
   1310,   102.482491,   527.273987,    105.96611
   1311,   115.691986,   527.273987,   91.3610458
   1312,    126.83696,   527.273987,   75.1256485
   1313,   135.718521,   527.273987,   57.5496254
   1314,   142.178192,   527.273987,   38.9466286
   1315,   146.100677,   527.273987,   19.6486301
   1316,      147.416,   527.273987,           0.
   1317,   146.100677,   546.802673,  -19.6486301
   1318,   142.178192,   546.802673,  -38.9466286
   1319,   135.718521,   546.802673,  -57.5496254
   1320,    126.83696,   546.802673,  -75.1256485
   1321,   115.691986,   546.802673,  -91.3610458
   1322,   102.482491,   546.802673,   -105.96611
   1323,   87.4441833,   546.802673,  -118.680206
   1324,   70.8454437,   546.802673,  -129.276443
   1325,   52.9824562,   546.802673,   -137.56575
   1326,   34.1739998,   546.802673,  -143.400192
   1327,   14.7557077,   546.802673,  -146.675644
   1328,  -4.92590237,   546.802673,  -147.333679
   1329,  -24.5196075,   546.802673,  -145.362534
   1330,  -43.6757622,   546.802673,  -140.797394
   1331,  -62.0525208,   546.802673,  -133.719711
   1332,  -79.3219452,   546.802673,  -124.255806
   1333,  -95.1758728,   546.802673,  -112.574554
   1334,   -109.33139,   546.802673,  -98.8843994
   1335,  -121.535873,   546.802673,   -83.429657
   1336,  -131.571564,   546.802673,  -66.4861069
   1337,  -139.259338,   546.802673,  -48.3561134
   1338,  -144.462036,   546.802673,  -29.3632011
   1339,  -147.086807,   546.802673,  -9.84630299
   1340,  -147.086807,   546.802673,   9.84630299
   1341,  -144.462036,   546.802673,   29.3632011
   1342,  -139.259338,   546.802673,   48.3561134
   1343,  -131.571564,   546.802673,   66.4861069
   1344,  -121.535873,   546.802673,    83.429657
   1345,   -109.33139,   546.802673,   98.8843994
   1346,  -95.1758728,   546.802673,   112.574554
   1347,  -79.3219452,   546.802673,   124.255806
   1348,  -62.0525208,   546.802673,   133.719711
   1349,  -43.6757622,   546.802673,   140.797394
   1350,  -24.5196075,   546.802673,   145.362534
   1351,  -4.92590237,   546.802673,   147.333679
   1352,   14.7557077,   546.802673,   146.675644
   1353,   34.1739998,   546.802673,   143.400192
   1354,   52.9824562,   546.802673,    137.56575
   1355,   70.8454437,   546.802673,   129.276443
   1356,   87.4441833,   546.802673,   118.680206
   1357,   102.482491,   546.802673,    105.96611
   1358,   115.691986,   546.802673,   91.3610458
   1359,    126.83696,   546.802673,   75.1256485
   1360,   135.718521,   546.802673,   57.5496254
   1361,   142.178192,   546.802673,   38.9466286
   1362,   146.100677,   546.802673,   19.6486301
   1363,      147.416,   546.802673,           0.
   1364,   146.100677,    566.33136,  -19.6486301
   1365,   142.178192,    566.33136,  -38.9466286
   1366,   135.718521,    566.33136,  -57.5496254
   1367,    126.83696,    566.33136,  -75.1256485
   1368,   115.691986,    566.33136,  -91.3610458
   1369,   102.482491,    566.33136,   -105.96611
   1370,   87.4441833,    566.33136,  -118.680206
   1371,   70.8454437,    566.33136,  -129.276443
   1372,   52.9824562,    566.33136,   -137.56575
   1373,   34.1739998,    566.33136,  -143.400192
   1374,   14.7557077,    566.33136,  -146.675644
   1375,  -4.92590237,    566.33136,  -147.333679
   1376,  -24.5196075,    566.33136,  -145.362534
   1377,  -43.6757622,    566.33136,  -140.797394
   1378,  -62.0525208,    566.33136,  -133.719711
   1379,  -79.3219452,    566.33136,  -124.255806
   1380,  -95.1758728,    566.33136,  -112.574554
   1381,   -109.33139,    566.33136,  -98.8843994
   1382,  -121.535873,    566.33136,   -83.429657
   1383,  -131.571564,    566.33136,  -66.4861069
   1384,  -139.259338,    566.33136,  -48.3561134
   1385,  -144.462036,    566.33136,  -29.3632011
   1386,  -147.086807,    566.33136,  -9.84630299
   1387,  -147.086807,    566.33136,   9.84630299
   1388,  -144.462036,    566.33136,   29.3632011
   1389,  -139.259338,    566.33136,   48.3561134
   1390,  -131.571564,    566.33136,   66.4861069
   1391,  -121.535873,    566.33136,    83.429657
   1392,   -109.33139,    566.33136,   98.8843994
   1393,  -95.1758728,    566.33136,   112.574554
   1394,  -79.3219452,    566.33136,   124.255806
   1395,  -62.0525208,    566.33136,   133.719711
   1396,  -43.6757622,    566.33136,   140.797394
   1397,  -24.5196075,    566.33136,   145.362534
   1398,  -4.92590237,    566.33136,   147.333679
   1399,   14.7557077,    566.33136,   146.675644
   1400,   34.1739998,    566.33136,   143.400192
   1401,   52.9824562,    566.33136,    137.56575
   1402,   70.8454437,    566.33136,   129.276443
   1403,   87.4441833,    566.33136,   118.680206
   1404,   102.482491,    566.33136,    105.96611
   1405,   115.691986,    566.33136,   91.3610458
   1406,    126.83696,    566.33136,   75.1256485
   1407,   135.718521,    566.33136,   57.5496254
   1408,   142.178192,    566.33136,   38.9466286
   1409,   146.100677,    566.33136,   19.6486301
   1410,      147.416,    566.33136,           0.
   1411,   146.100677,   585.859985,  -19.6486301
   1412,   142.178192,   585.859985,  -38.9466286
   1413,   135.718521,   585.859985,  -57.5496254
   1414,    126.83696,   585.859985,  -75.1256485
   1415,   115.691986,   585.859985,  -91.3610458
   1416,   102.482491,   585.859985,   -105.96611
   1417,   87.4441833,   585.859985,  -118.680206
   1418,   70.8454437,   585.859985,  -129.276443
   1419,   52.9824562,   585.859985,   -137.56575
   1420,   34.1739998,   585.859985,  -143.400192
   1421,   14.7557068,   585.859985,  -146.675644
   1422,  -4.92590237,   585.859985,  -147.333679
   1423,  -24.5196075,   585.859985,  -145.362534
   1424,  -43.6757622,   585.859985,  -140.797394
   1425,  -62.0525208,   585.859985,  -133.719711
   1426,  -79.3219452,   585.859985,  -124.255806
   1427,  -95.1758728,   585.859985,  -112.574554
   1428,   -109.33139,   585.859985,  -98.8843994
   1429,  -121.535873,   585.859985,   -83.429657
   1430,  -131.571564,   585.859985,  -66.4861069
   1431,  -139.259338,   585.859985,  -48.3561134
   1432,  -144.462036,   585.859985,  -29.3632011
   1433,  -147.086807,   585.859985,  -9.84630299
   1434,  -147.086807,   585.859985,   9.84630299
   1435,  -144.462036,   585.859985,   29.3632011
   1436,  -139.259338,   585.859985,   48.3561134
   1437,  -131.571564,   585.859985,   66.4861069
   1438,  -121.535873,   585.859985,    83.429657
   1439,   -109.33139,   585.859985,   98.8843994
   1440,  -95.1758728,   585.859985,   112.574554
   1441,  -79.3219452,   585.859985,   124.255806
   1442,  -62.0525208,   585.859985,   133.719711
   1443,  -43.6757622,   585.859985,   140.797394
   1444,  -24.5196075,   585.859985,   145.362534
   1445,  -4.92590237,   585.859985,   147.333679
   1446,   14.7557068,   585.859985,   146.675644
   1447,   34.1739998,   585.859985,   143.400192
   1448,   52.9824562,   585.859985,    137.56575
   1449,   70.8454437,   585.859985,   129.276443
   1450,   87.4441833,   585.859985,   118.680206
   1451,   102.482491,   585.859985,    105.96611
   1452,   115.691986,   585.859985,   91.3610458
   1453,    126.83696,   585.859985,   75.1256485
   1454,   135.718521,   585.859985,   57.5496254
   1455,   142.178192,   585.859985,   38.9466286
   1456,   146.100677,   585.859985,   19.6486301
   1457,      147.416,   585.859985,           0.
*Element, type=S4R
   1,   47,    1,   48,   94
   2,    1,    2,   49,   48
   3,    2,    3,   50,   49
   4,    3,    4,   51,   50
   5,    4,    5,   52,   51
   6,    5,    6,   53,   52
   7,    6,    7,   54,   53
   8,    7,    8,   55,   54
   9,    8,    9,   56,   55
  10,    9,   10,   57,   56
  11,   10,   11,   58,   57
  12,   11,   12,   59,   58
  13,   12,   13,   60,   59
  14,   13,   14,   61,   60
  15,   14,   15,   62,   61
  16,   15,   16,   63,   62
  17,   16,   17,   64,   63
  18,   17,   18,   65,   64
  19,   18,   19,   66,   65
  20,   19,   20,   67,   66
  21,   20,   21,   68,   67
  22,   21,   22,   69,   68
  23,   22,   23,   70,   69
  24,   23,   24,   71,   70
  25,   24,   25,   72,   71
  26,   25,   26,   73,   72
  27,   26,   27,   74,   73
  28,   27,   28,   75,   74
  29,   28,   29,   76,   75
  30,   29,   30,   77,   76
  31,   30,   31,   78,   77
  32,   31,   32,   79,   78
  33,   32,   33,   80,   79
  34,   33,   34,   81,   80
  35,   34,   35,   82,   81
  36,   35,   36,   83,   82
  37,   36,   37,   84,   83
  38,   37,   38,   85,   84
  39,   38,   39,   86,   85
  40,   39,   40,   87,   86
  41,   40,   41,   88,   87
  42,   41,   42,   89,   88
  43,   42,   43,   90,   89
  44,   43,   44,   91,   90
  45,   44,   45,   92,   91
  46,   45,   46,   93,   92
  47,   46,   47,   94,   93
  48,   94,   48,   95,  141
  49,   48,   49,   96,   95
  50,   49,   50,   97,   96
  51,   50,   51,   98,   97
  52,   51,   52,   99,   98
  53,   52,   53,  100,   99
  54,   53,   54,  101,  100
  55,   54,   55,  102,  101
  56,   55,   56,  103,  102
  57,   56,   57,  104,  103
  58,   57,   58,  105,  104
  59,   58,   59,  106,  105
  60,   59,   60,  107,  106
  61,   60,   61,  108,  107
  62,   61,   62,  109,  108
  63,   62,   63,  110,  109
  64,   63,   64,  111,  110
  65,   64,   65,  112,  111
  66,   65,   66,  113,  112
  67,   66,   67,  114,  113
  68,   67,   68,  115,  114
  69,   68,   69,  116,  115
  70,   69,   70,  117,  116
  71,   70,   71,  118,  117
  72,   71,   72,  119,  118
  73,   72,   73,  120,  119
  74,   73,   74,  121,  120
  75,   74,   75,  122,  121
  76,   75,   76,  123,  122
  77,   76,   77,  124,  123
  78,   77,   78,  125,  124
  79,   78,   79,  126,  125
  80,   79,   80,  127,  126
  81,   80,   81,  128,  127
  82,   81,   82,  129,  128
  83,   82,   83,  130,  129
  84,   83,   84,  131,  130
  85,   84,   85,  132,  131
  86,   85,   86,  133,  132
  87,   86,   87,  134,  133
  88,   87,   88,  135,  134
  89,   88,   89,  136,  135
  90,   89,   90,  137,  136
  91,   90,   91,  138,  137
  92,   91,   92,  139,  138
  93,   92,   93,  140,  139
  94,   93,   94,  141,  140
  95,  141,   95,  142,  188
  96,   95,   96,  143,  142
  97,   96,   97,  144,  143
  98,   97,   98,  145,  144
  99,   98,   99,  146,  145
 100,   99,  100,  147,  146
 101,  100,  101,  148,  147
 102,  101,  102,  149,  148
 103,  102,  103,  150,  149
 104,  103,  104,  151,  150
 105,  104,  105,  152,  151
 106,  105,  106,  153,  152
 107,  106,  107,  154,  153
 108,  107,  108,  155,  154
 109,  108,  109,  156,  155
 110,  109,  110,  157,  156
 111,  110,  111,  158,  157
 112,  111,  112,  159,  158
 113,  112,  113,  160,  159
 114,  113,  114,  161,  160
 115,  114,  115,  162,  161
 116,  115,  116,  163,  162
 117,  116,  117,  164,  163
 118,  117,  118,  165,  164
 119,  118,  119,  166,  165
 120,  119,  120,  167,  166
 121,  120,  121,  168,  167
 122,  121,  122,  169,  168
 123,  122,  123,  170,  169
 124,  123,  124,  171,  170
 125,  124,  125,  172,  171
 126,  125,  126,  173,  172
 127,  126,  127,  174,  173
 128,  127,  128,  175,  174
 129,  128,  129,  176,  175
 130,  129,  130,  177,  176
 131,  130,  131,  178,  177
 132,  131,  132,  179,  178
 133,  132,  133,  180,  179
 134,  133,  134,  181,  180
 135,  134,  135,  182,  181
 136,  135,  136,  183,  182
 137,  136,  137,  184,  183
 138,  137,  138,  185,  184
 139,  138,  139,  186,  185
 140,  139,  140,  187,  186
 141,  140,  141,  188,  187
 142,  188,  142,  189,  235
 143,  142,  143,  190,  189
 144,  143,  144,  191,  190
 145,  144,  145,  192,  191
 146,  145,  146,  193,  192
 147,  146,  147,  194,  193
 148,  147,  148,  195,  194
 149,  148,  149,  196,  195
 150,  149,  150,  197,  196
 151,  150,  151,  198,  197
 152,  151,  152,  199,  198
 153,  152,  153,  200,  199
 154,  153,  154,  201,  200
 155,  154,  155,  202,  201
 156,  155,  156,  203,  202
 157,  156,  157,  204,  203
 158,  157,  158,  205,  204
 159,  158,  159,  206,  205
 160,  159,  160,  207,  206
 161,  160,  161,  208,  207
 162,  161,  162,  209,  208
 163,  162,  163,  210,  209
 164,  163,  164,  211,  210
 165,  164,  165,  212,  211
 166,  165,  166,  213,  212
 167,  166,  167,  214,  213
 168,  167,  168,  215,  214
 169,  168,  169,  216,  215
 170,  169,  170,  217,  216
 171,  170,  171,  218,  217
 172,  171,  172,  219,  218
 173,  172,  173,  220,  219
 174,  173,  174,  221,  220
 175,  174,  175,  222,  221
 176,  175,  176,  223,  222
 177,  176,  177,  224,  223
 178,  177,  178,  225,  224
 179,  178,  179,  226,  225
 180,  179,  180,  227,  226
 181,  180,  181,  228,  227
 182,  181,  182,  229,  228
 183,  182,  183,  230,  229
 184,  183,  184,  231,  230
 185,  184,  185,  232,  231
 186,  185,  186,  233,  232
 187,  186,  187,  234,  233
 188,  187,  188,  235,  234
 189,  235,  189,  236,  282
 190,  189,  190,  237,  236
 191,  190,  191,  238,  237
 192,  191,  192,  239,  238
 193,  192,  193,  240,  239
 194,  193,  194,  241,  240
 195,  194,  195,  242,  241
 196,  195,  196,  243,  242
 197,  196,  197,  244,  243
 198,  197,  198,  245,  244
 199,  198,  199,  246,  245
 200,  199,  200,  247,  246
 201,  200,  201,  248,  247
 202,  201,  202,  249,  248
 203,  202,  203,  250,  249
 204,  203,  204,  251,  250
 205,  204,  205,  252,  251
 206,  205,  206,  253,  252
 207,  206,  207,  254,  253
 208,  207,  208,  255,  254
 209,  208,  209,  256,  255
 210,  209,  210,  257,  256
 211,  210,  211,  258,  257
 212,  211,  212,  259,  258
 213,  212,  213,  260,  259
 214,  213,  214,  261,  260
 215,  214,  215,  262,  261
 216,  215,  216,  263,  262
 217,  216,  217,  264,  263
 218,  217,  218,  265,  264
 219,  218,  219,  266,  265
 220,  219,  220,  267,  266
 221,  220,  221,  268,  267
 222,  221,  222,  269,  268
 223,  222,  223,  270,  269
 224,  223,  224,  271,  270
 225,  224,  225,  272,  271
 226,  225,  226,  273,  272
 227,  226,  227,  274,  273
 228,  227,  228,  275,  274
 229,  228,  229,  276,  275
 230,  229,  230,  277,  276
 231,  230,  231,  278,  277
 232,  231,  232,  279,  278
 233,  232,  233,  280,  279
 234,  233,  234,  281,  280
 235,  234,  235,  282,  281
 236,  282,  236,  283,  329
 237,  236,  237,  284,  283
 238,  237,  238,  285,  284
 239,  238,  239,  286,  285
 240,  239,  240,  287,  286
 241,  240,  241,  288,  287
 242,  241,  242,  289,  288
 243,  242,  243,  290,  289
 244,  243,  244,  291,  290
 245,  244,  245,  292,  291
 246,  245,  246,  293,  292
 247,  246,  247,  294,  293
 248,  247,  248,  295,  294
 249,  248,  249,  296,  295
 250,  249,  250,  297,  296
 251,  250,  251,  298,  297
 252,  251,  252,  299,  298
 253,  252,  253,  300,  299
 254,  253,  254,  301,  300
 255,  254,  255,  302,  301
 256,  255,  256,  303,  302
 257,  256,  257,  304,  303
 258,  257,  258,  305,  304
 259,  258,  259,  306,  305
 260,  259,  260,  307,  306
 261,  260,  261,  308,  307
 262,  261,  262,  309,  308
 263,  262,  263,  310,  309
 264,  263,  264,  311,  310
 265,  264,  265,  312,  311
 266,  265,  266,  313,  312
 267,  266,  267,  314,  313
 268,  267,  268,  315,  314
 269,  268,  269,  316,  315
 270,  269,  270,  317,  316
 271,  270,  271,  318,  317
 272,  271,  272,  319,  318
 273,  272,  273,  320,  319
 274,  273,  274,  321,  320
 275,  274,  275,  322,  321
 276,  275,  276,  323,  322
 277,  276,  277,  324,  323
 278,  277,  278,  325,  324
 279,  278,  279,  326,  325
 280,  279,  280,  327,  326
 281,  280,  281,  328,  327
 282,  281,  282,  329,  328
 283,  329,  283,  330,  376
 284,  283,  284,  331,  330
 285,  284,  285,  332,  331
 286,  285,  286,  333,  332
 287,  286,  287,  334,  333
 288,  287,  288,  335,  334
 289,  288,  289,  336,  335
 290,  289,  290,  337,  336
 291,  290,  291,  338,  337
 292,  291,  292,  339,  338
 293,  292,  293,  340,  339
 294,  293,  294,  341,  340
 295,  294,  295,  342,  341
 296,  295,  296,  343,  342
 297,  296,  297,  344,  343
 298,  297,  298,  345,  344
 299,  298,  299,  346,  345
 300,  299,  300,  347,  346
 301,  300,  301,  348,  347
 302,  301,  302,  349,  348
 303,  302,  303,  350,  349
 304,  303,  304,  351,  350
 305,  304,  305,  352,  351
 306,  305,  306,  353,  352
 307,  306,  307,  354,  353
 308,  307,  308,  355,  354
 309,  308,  309,  356,  355
 310,  309,  310,  357,  356
 311,  310,  311,  358,  357
 312,  311,  312,  359,  358
 313,  312,  313,  360,  359
 314,  313,  314,  361,  360
 315,  314,  315,  362,  361
 316,  315,  316,  363,  362
 317,  316,  317,  364,  363
 318,  317,  318,  365,  364
 319,  318,  319,  366,  365
 320,  319,  320,  367,  366
 321,  320,  321,  368,  367
 322,  321,  322,  369,  368
 323,  322,  323,  370,  369
 324,  323,  324,  371,  370
 325,  324,  325,  372,  371
 326,  325,  326,  373,  372
 327,  326,  327,  374,  373
 328,  327,  328,  375,  374
 329,  328,  329,  376,  375
 330,  376,  330,  377,  423
 331,  330,  331,  378,  377
 332,  331,  332,  379,  378
 333,  332,  333,  380,  379
 334,  333,  334,  381,  380
 335,  334,  335,  382,  381
 336,  335,  336,  383,  382
 337,  336,  337,  384,  383
 338,  337,  338,  385,  384
 339,  338,  339,  386,  385
 340,  339,  340,  387,  386
 341,  340,  341,  388,  387
 342,  341,  342,  389,  388
 343,  342,  343,  390,  389
 344,  343,  344,  391,  390
 345,  344,  345,  392,  391
 346,  345,  346,  393,  392
 347,  346,  347,  394,  393
 348,  347,  348,  395,  394
 349,  348,  349,  396,  395
 350,  349,  350,  397,  396
 351,  350,  351,  398,  397
 352,  351,  352,  399,  398
 353,  352,  353,  400,  399
 354,  353,  354,  401,  400
 355,  354,  355,  402,  401
 356,  355,  356,  403,  402
 357,  356,  357,  404,  403
 358,  357,  358,  405,  404
 359,  358,  359,  406,  405
 360,  359,  360,  407,  406
 361,  360,  361,  408,  407
 362,  361,  362,  409,  408
 363,  362,  363,  410,  409
 364,  363,  364,  411,  410
 365,  364,  365,  412,  411
 366,  365,  366,  413,  412
 367,  366,  367,  414,  413
 368,  367,  368,  415,  414
 369,  368,  369,  416,  415
 370,  369,  370,  417,  416
 371,  370,  371,  418,  417
 372,  371,  372,  419,  418
 373,  372,  373,  420,  419
 374,  373,  374,  421,  420
 375,  374,  375,  422,  421
 376,  375,  376,  423,  422
 377,  423,  377,  424,  470
 378,  377,  378,  425,  424
 379,  378,  379,  426,  425
 380,  379,  380,  427,  426
 381,  380,  381,  428,  427
 382,  381,  382,  429,  428
 383,  382,  383,  430,  429
 384,  383,  384,  431,  430
 385,  384,  385,  432,  431
 386,  385,  386,  433,  432
 387,  386,  387,  434,  433
 388,  387,  388,  435,  434
 389,  388,  389,  436,  435
 390,  389,  390,  437,  436
 391,  390,  391,  438,  437
 392,  391,  392,  439,  438
 393,  392,  393,  440,  439
 394,  393,  394,  441,  440
 395,  394,  395,  442,  441
 396,  395,  396,  443,  442
 397,  396,  397,  444,  443
 398,  397,  398,  445,  444
 399,  398,  399,  446,  445
 400,  399,  400,  447,  446
 401,  400,  401,  448,  447
 402,  401,  402,  449,  448
 403,  402,  403,  450,  449
 404,  403,  404,  451,  450
 405,  404,  405,  452,  451
 406,  405,  406,  453,  452
 407,  406,  407,  454,  453
 408,  407,  408,  455,  454
 409,  408,  409,  456,  455
 410,  409,  410,  457,  456
 411,  410,  411,  458,  457
 412,  411,  412,  459,  458
 413,  412,  413,  460,  459
 414,  413,  414,  461,  460
 415,  414,  415,  462,  461
 416,  415,  416,  463,  462
 417,  416,  417,  464,  463
 418,  417,  418,  465,  464
 419,  418,  419,  466,  465
 420,  419,  420,  467,  466
 421,  420,  421,  468,  467
 422,  421,  422,  469,  468
 423,  422,  423,  470,  469
 424,  470,  424,  471,  517
 425,  424,  425,  472,  471
 426,  425,  426,  473,  472
 427,  426,  427,  474,  473
 428,  427,  428,  475,  474
 429,  428,  429,  476,  475
 430,  429,  430,  477,  476
 431,  430,  431,  478,  477
 432,  431,  432,  479,  478
 433,  432,  433,  480,  479
 434,  433,  434,  481,  480
 435,  434,  435,  482,  481
 436,  435,  436,  483,  482
 437,  436,  437,  484,  483
 438,  437,  438,  485,  484
 439,  438,  439,  486,  485
 440,  439,  440,  487,  486
 441,  440,  441,  488,  487
 442,  441,  442,  489,  488
 443,  442,  443,  490,  489
 444,  443,  444,  491,  490
 445,  444,  445,  492,  491
 446,  445,  446,  493,  492
 447,  446,  447,  494,  493
 448,  447,  448,  495,  494
 449,  448,  449,  496,  495
 450,  449,  450,  497,  496
 451,  450,  451,  498,  497
 452,  451,  452,  499,  498
 453,  452,  453,  500,  499
 454,  453,  454,  501,  500
 455,  454,  455,  502,  501
 456,  455,  456,  503,  502
 457,  456,  457,  504,  503
 458,  457,  458,  505,  504
 459,  458,  459,  506,  505
 460,  459,  460,  507,  506
 461,  460,  461,  508,  507
 462,  461,  462,  509,  508
 463,  462,  463,  510,  509
 464,  463,  464,  511,  510
 465,  464,  465,  512,  511
 466,  465,  466,  513,  512
 467,  466,  467,  514,  513
 468,  467,  468,  515,  514
 469,  468,  469,  516,  515
 470,  469,  470,  517,  516
 471,  517,  471,  518,  564
 472,  471,  472,  519,  518
 473,  472,  473,  520,  519
 474,  473,  474,  521,  520
 475,  474,  475,  522,  521
 476,  475,  476,  523,  522
 477,  476,  477,  524,  523
 478,  477,  478,  525,  524
 479,  478,  479,  526,  525
 480,  479,  480,  527,  526
 481,  480,  481,  528,  527
 482,  481,  482,  529,  528
 483,  482,  483,  530,  529
 484,  483,  484,  531,  530
 485,  484,  485,  532,  531
 486,  485,  486,  533,  532
 487,  486,  487,  534,  533
 488,  487,  488,  535,  534
 489,  488,  489,  536,  535
 490,  489,  490,  537,  536
 491,  490,  491,  538,  537
 492,  491,  492,  539,  538
 493,  492,  493,  540,  539
 494,  493,  494,  541,  540
 495,  494,  495,  542,  541
 496,  495,  496,  543,  542
 497,  496,  497,  544,  543
 498,  497,  498,  545,  544
 499,  498,  499,  546,  545
 500,  499,  500,  547,  546
 501,  500,  501,  548,  547
 502,  501,  502,  549,  548
 503,  502,  503,  550,  549
 504,  503,  504,  551,  550
 505,  504,  505,  552,  551
 506,  505,  506,  553,  552
 507,  506,  507,  554,  553
 508,  507,  508,  555,  554
 509,  508,  509,  556,  555
 510,  509,  510,  557,  556
 511,  510,  511,  558,  557
 512,  511,  512,  559,  558
 513,  512,  513,  560,  559
 514,  513,  514,  561,  560
 515,  514,  515,  562,  561
 516,  515,  516,  563,  562
 517,  516,  517,  564,  563
 518,  564,  518,  565,  611
 519,  518,  519,  566,  565
 520,  519,  520,  567,  566
 521,  520,  521,  568,  567
 522,  521,  522,  569,  568
 523,  522,  523,  570,  569
 524,  523,  524,  571,  570
 525,  524,  525,  572,  571
 526,  525,  526,  573,  572
 527,  526,  527,  574,  573
 528,  527,  528,  575,  574
 529,  528,  529,  576,  575
 530,  529,  530,  577,  576
 531,  530,  531,  578,  577
 532,  531,  532,  579,  578
 533,  532,  533,  580,  579
 534,  533,  534,  581,  580
 535,  534,  535,  582,  581
 536,  535,  536,  583,  582
 537,  536,  537,  584,  583
 538,  537,  538,  585,  584
 539,  538,  539,  586,  585
 540,  539,  540,  587,  586
 541,  540,  541,  588,  587
 542,  541,  542,  589,  588
 543,  542,  543,  590,  589
 544,  543,  544,  591,  590
 545,  544,  545,  592,  591
 546,  545,  546,  593,  592
 547,  546,  547,  594,  593
 548,  547,  548,  595,  594
 549,  548,  549,  596,  595
 550,  549,  550,  597,  596
 551,  550,  551,  598,  597
 552,  551,  552,  599,  598
 553,  552,  553,  600,  599
 554,  553,  554,  601,  600
 555,  554,  555,  602,  601
 556,  555,  556,  603,  602
 557,  556,  557,  604,  603
 558,  557,  558,  605,  604
 559,  558,  559,  606,  605
 560,  559,  560,  607,  606
 561,  560,  561,  608,  607
 562,  561,  562,  609,  608
 563,  562,  563,  610,  609
 564,  563,  564,  611,  610
 565,  611,  565,  612,  658
 566,  565,  566,  613,  612
 567,  566,  567,  614,  613
 568,  567,  568,  615,  614
 569,  568,  569,  616,  615
 570,  569,  570,  617,  616
 571,  570,  571,  618,  617
 572,  571,  572,  619,  618
 573,  572,  573,  620,  619
 574,  573,  574,  621,  620
 575,  574,  575,  622,  621
 576,  575,  576,  623,  622
 577,  576,  577,  624,  623
 578,  577,  578,  625,  624
 579,  578,  579,  626,  625
 580,  579,  580,  627,  626
 581,  580,  581,  628,  627
 582,  581,  582,  629,  628
 583,  582,  583,  630,  629
 584,  583,  584,  631,  630
 585,  584,  585,  632,  631
 586,  585,  586,  633,  632
 587,  586,  587,  634,  633
 588,  587,  588,  635,  634
 589,  588,  589,  636,  635
 590,  589,  590,  637,  636
 591,  590,  591,  638,  637
 592,  591,  592,  639,  638
 593,  592,  593,  640,  639
 594,  593,  594,  641,  640
 595,  594,  595,  642,  641
 596,  595,  596,  643,  642
 597,  596,  597,  644,  643
 598,  597,  598,  645,  644
 599,  598,  599,  646,  645
 600,  599,  600,  647,  646
 601,  600,  601,  648,  647
 602,  601,  602,  649,  648
 603,  602,  603,  650,  649
 604,  603,  604,  651,  650
 605,  604,  605,  652,  651
 606,  605,  606,  653,  652
 607,  606,  607,  654,  653
 608,  607,  608,  655,  654
 609,  608,  609,  656,  655
 610,  609,  610,  657,  656
 611,  610,  611,  658,  657
 612,  658,  612,  659,  705
 613,  612,  613,  660,  659
 614,  613,  614,  661,  660
 615,  614,  615,  662,  661
 616,  615,  616,  663,  662
 617,  616,  617,  664,  663
 618,  617,  618,  665,  664
 619,  618,  619,  666,  665
 620,  619,  620,  667,  666
 621,  620,  621,  668,  667
 622,  621,  622,  669,  668
 623,  622,  623,  670,  669
 624,  623,  624,  671,  670
 625,  624,  625,  672,  671
 626,  625,  626,  673,  672
 627,  626,  627,  674,  673
 628,  627,  628,  675,  674
 629,  628,  629,  676,  675
 630,  629,  630,  677,  676
 631,  630,  631,  678,  677
 632,  631,  632,  679,  678
 633,  632,  633,  680,  679
 634,  633,  634,  681,  680
 635,  634,  635,  682,  681
 636,  635,  636,  683,  682
 637,  636,  637,  684,  683
 638,  637,  638,  685,  684
 639,  638,  639,  686,  685
 640,  639,  640,  687,  686
 641,  640,  641,  688,  687
 642,  641,  642,  689,  688
 643,  642,  643,  690,  689
 644,  643,  644,  691,  690
 645,  644,  645,  692,  691
 646,  645,  646,  693,  692
 647,  646,  647,  694,  693
 648,  647,  648,  695,  694
 649,  648,  649,  696,  695
 650,  649,  650,  697,  696
 651,  650,  651,  698,  697
 652,  651,  652,  699,  698
 653,  652,  653,  700,  699
 654,  653,  654,  701,  700
 655,  654,  655,  702,  701
 656,  655,  656,  703,  702
 657,  656,  657,  704,  703
 658,  657,  658,  705,  704
 659,  705,  659,  706,  752
 660,  659,  660,  707,  706
 661,  660,  661,  708,  707
 662,  661,  662,  709,  708
 663,  662,  663,  710,  709
 664,  663,  664,  711,  710
 665,  664,  665,  712,  711
 666,  665,  666,  713,  712
 667,  666,  667,  714,  713
 668,  667,  668,  715,  714
 669,  668,  669,  716,  715
 670,  669,  670,  717,  716
 671,  670,  671,  718,  717
 672,  671,  672,  719,  718
 673,  672,  673,  720,  719
 674,  673,  674,  721,  720
 675,  674,  675,  722,  721
 676,  675,  676,  723,  722
 677,  676,  677,  724,  723
 678,  677,  678,  725,  724
 679,  678,  679,  726,  725
 680,  679,  680,  727,  726
 681,  680,  681,  728,  727
 682,  681,  682,  729,  728
 683,  682,  683,  730,  729
 684,  683,  684,  731,  730
 685,  684,  685,  732,  731
 686,  685,  686,  733,  732
 687,  686,  687,  734,  733
 688,  687,  688,  735,  734
 689,  688,  689,  736,  735
 690,  689,  690,  737,  736
 691,  690,  691,  738,  737
 692,  691,  692,  739,  738
 693,  692,  693,  740,  739
 694,  693,  694,  741,  740
 695,  694,  695,  742,  741
 696,  695,  696,  743,  742
 697,  696,  697,  744,  743
 698,  697,  698,  745,  744
 699,  698,  699,  746,  745
 700,  699,  700,  747,  746
 701,  700,  701,  748,  747
 702,  701,  702,  749,  748
 703,  702,  703,  750,  749
 704,  703,  704,  751,  750
 705,  704,  705,  752,  751
 706,  752,  706,  753,  799
 707,  706,  707,  754,  753
 708,  707,  708,  755,  754
 709,  708,  709,  756,  755
 710,  709,  710,  757,  756
 711,  710,  711,  758,  757
 712,  711,  712,  759,  758
 713,  712,  713,  760,  759
 714,  713,  714,  761,  760
 715,  714,  715,  762,  761
 716,  715,  716,  763,  762
 717,  716,  717,  764,  763
 718,  717,  718,  765,  764
 719,  718,  719,  766,  765
 720,  719,  720,  767,  766
 721,  720,  721,  768,  767
 722,  721,  722,  769,  768
 723,  722,  723,  770,  769
 724,  723,  724,  771,  770
 725,  724,  725,  772,  771
 726,  725,  726,  773,  772
 727,  726,  727,  774,  773
 728,  727,  728,  775,  774
 729,  728,  729,  776,  775
 730,  729,  730,  777,  776
 731,  730,  731,  778,  777
 732,  731,  732,  779,  778
 733,  732,  733,  780,  779
 734,  733,  734,  781,  780
 735,  734,  735,  782,  781
 736,  735,  736,  783,  782
 737,  736,  737,  784,  783
 738,  737,  738,  785,  784
 739,  738,  739,  786,  785
 740,  739,  740,  787,  786
 741,  740,  741,  788,  787
 742,  741,  742,  789,  788
 743,  742,  743,  790,  789
 744,  743,  744,  791,  790
 745,  744,  745,  792,  791
 746,  745,  746,  793,  792
 747,  746,  747,  794,  793
 748,  747,  748,  795,  794
 749,  748,  749,  796,  795
 750,  749,  750,  797,  796
 751,  750,  751,  798,  797
 752,  751,  752,  799,  798
 753,  799,  753,  800,  846
 754,  753,  754,  801,  800
 755,  754,  755,  802,  801
 756,  755,  756,  803,  802
 757,  756,  757,  804,  803
 758,  757,  758,  805,  804
 759,  758,  759,  806,  805
 760,  759,  760,  807,  806
 761,  760,  761,  808,  807
 762,  761,  762,  809,  808
 763,  762,  763,  810,  809
 764,  763,  764,  811,  810
 765,  764,  765,  812,  811
 766,  765,  766,  813,  812
 767,  766,  767,  814,  813
 768,  767,  768,  815,  814
 769,  768,  769,  816,  815
 770,  769,  770,  817,  816
 771,  770,  771,  818,  817
 772,  771,  772,  819,  818
 773,  772,  773,  820,  819
 774,  773,  774,  821,  820
 775,  774,  775,  822,  821
 776,  775,  776,  823,  822
 777,  776,  777,  824,  823
 778,  777,  778,  825,  824
 779,  778,  779,  826,  825
 780,  779,  780,  827,  826
 781,  780,  781,  828,  827
 782,  781,  782,  829,  828
 783,  782,  783,  830,  829
 784,  783,  784,  831,  830
 785,  784,  785,  832,  831
 786,  785,  786,  833,  832
 787,  786,  787,  834,  833
 788,  787,  788,  835,  834
 789,  788,  789,  836,  835
 790,  789,  790,  837,  836
 791,  790,  791,  838,  837
 792,  791,  792,  839,  838
 793,  792,  793,  840,  839
 794,  793,  794,  841,  840
 795,  794,  795,  842,  841
 796,  795,  796,  843,  842
 797,  796,  797,  844,  843
 798,  797,  798,  845,  844
 799,  798,  799,  846,  845
 800,  846,  800,  847,  893
 801,  800,  801,  848,  847
 802,  801,  802,  849,  848
 803,  802,  803,  850,  849
 804,  803,  804,  851,  850
 805,  804,  805,  852,  851
 806,  805,  806,  853,  852
 807,  806,  807,  854,  853
 808,  807,  808,  855,  854
 809,  808,  809,  856,  855
 810,  809,  810,  857,  856
 811,  810,  811,  858,  857
 812,  811,  812,  859,  858
 813,  812,  813,  860,  859
 814,  813,  814,  861,  860
 815,  814,  815,  862,  861
 816,  815,  816,  863,  862
 817,  816,  817,  864,  863
 818,  817,  818,  865,  864
 819,  818,  819,  866,  865
 820,  819,  820,  867,  866
 821,  820,  821,  868,  867
 822,  821,  822,  869,  868
 823,  822,  823,  870,  869
 824,  823,  824,  871,  870
 825,  824,  825,  872,  871
 826,  825,  826,  873,  872
 827,  826,  827,  874,  873
 828,  827,  828,  875,  874
 829,  828,  829,  876,  875
 830,  829,  830,  877,  876
 831,  830,  831,  878,  877
 832,  831,  832,  879,  878
 833,  832,  833,  880,  879
 834,  833,  834,  881,  880
 835,  834,  835,  882,  881
 836,  835,  836,  883,  882
 837,  836,  837,  884,  883
 838,  837,  838,  885,  884
 839,  838,  839,  886,  885
 840,  839,  840,  887,  886
 841,  840,  841,  888,  887
 842,  841,  842,  889,  888
 843,  842,  843,  890,  889
 844,  843,  844,  891,  890
 845,  844,  845,  892,  891
 846,  845,  846,  893,  892
 847,  893,  847,  894,  940
 848,  847,  848,  895,  894
 849,  848,  849,  896,  895
 850,  849,  850,  897,  896
 851,  850,  851,  898,  897
 852,  851,  852,  899,  898
 853,  852,  853,  900,  899
 854,  853,  854,  901,  900
 855,  854,  855,  902,  901
 856,  855,  856,  903,  902
 857,  856,  857,  904,  903
 858,  857,  858,  905,  904
 859,  858,  859,  906,  905
 860,  859,  860,  907,  906
 861,  860,  861,  908,  907
 862,  861,  862,  909,  908
 863,  862,  863,  910,  909
 864,  863,  864,  911,  910
 865,  864,  865,  912,  911
 866,  865,  866,  913,  912
 867,  866,  867,  914,  913
 868,  867,  868,  915,  914
 869,  868,  869,  916,  915
 870,  869,  870,  917,  916
 871,  870,  871,  918,  917
 872,  871,  872,  919,  918
 873,  872,  873,  920,  919
 874,  873,  874,  921,  920
 875,  874,  875,  922,  921
 876,  875,  876,  923,  922
 877,  876,  877,  924,  923
 878,  877,  878,  925,  924
 879,  878,  879,  926,  925
 880,  879,  880,  927,  926
 881,  880,  881,  928,  927
 882,  881,  882,  929,  928
 883,  882,  883,  930,  929
 884,  883,  884,  931,  930
 885,  884,  885,  932,  931
 886,  885,  886,  933,  932
 887,  886,  887,  934,  933
 888,  887,  888,  935,  934
 889,  888,  889,  936,  935
 890,  889,  890,  937,  936
 891,  890,  891,  938,  937
 892,  891,  892,  939,  938
 893,  892,  893,  940,  939
 894,  940,  894,  941,  987
 895,  894,  895,  942,  941
 896,  895,  896,  943,  942
 897,  896,  897,  944,  943
 898,  897,  898,  945,  944
 899,  898,  899,  946,  945
 900,  899,  900,  947,  946
 901,  900,  901,  948,  947
 902,  901,  902,  949,  948
 903,  902,  903,  950,  949
 904,  903,  904,  951,  950
 905,  904,  905,  952,  951
 906,  905,  906,  953,  952
 907,  906,  907,  954,  953
 908,  907,  908,  955,  954
 909,  908,  909,  956,  955
 910,  909,  910,  957,  956
 911,  910,  911,  958,  957
 912,  911,  912,  959,  958
 913,  912,  913,  960,  959
 914,  913,  914,  961,  960
 915,  914,  915,  962,  961
 916,  915,  916,  963,  962
 917,  916,  917,  964,  963
 918,  917,  918,  965,  964
 919,  918,  919,  966,  965
 920,  919,  920,  967,  966
 921,  920,  921,  968,  967
 922,  921,  922,  969,  968
 923,  922,  923,  970,  969
 924,  923,  924,  971,  970
 925,  924,  925,  972,  971
 926,  925,  926,  973,  972
 927,  926,  927,  974,  973
 928,  927,  928,  975,  974
 929,  928,  929,  976,  975
 930,  929,  930,  977,  976
 931,  930,  931,  978,  977
 932,  931,  932,  979,  978
 933,  932,  933,  980,  979
 934,  933,  934,  981,  980
 935,  934,  935,  982,  981
 936,  935,  936,  983,  982
 937,  936,  937,  984,  983
 938,  937,  938,  985,  984
 939,  938,  939,  986,  985
 940,  939,  940,  987,  986
 941,  987,  941,  988, 1034
 942,  941,  942,  989,  988
 943,  942,  943,  990,  989
 944,  943,  944,  991,  990
 945,  944,  945,  992,  991
 946,  945,  946,  993,  992
 947,  946,  947,  994,  993
 948,  947,  948,  995,  994
 949,  948,  949,  996,  995
 950,  949,  950,  997,  996
 951,  950,  951,  998,  997
 952,  951,  952,  999,  998
 953,  952,  953, 1000,  999
 954,  953,  954, 1001, 1000
 955,  954,  955, 1002, 1001
 956,  955,  956, 1003, 1002
 957,  956,  957, 1004, 1003
 958,  957,  958, 1005, 1004
 959,  958,  959, 1006, 1005
 960,  959,  960, 1007, 1006
 961,  960,  961, 1008, 1007
 962,  961,  962, 1009, 1008
 963,  962,  963, 1010, 1009
 964,  963,  964, 1011, 1010
 965,  964,  965, 1012, 1011
 966,  965,  966, 1013, 1012
 967,  966,  967, 1014, 1013
 968,  967,  968, 1015, 1014
 969,  968,  969, 1016, 1015
 970,  969,  970, 1017, 1016
 971,  970,  971, 1018, 1017
 972,  971,  972, 1019, 1018
 973,  972,  973, 1020, 1019
 974,  973,  974, 1021, 1020
 975,  974,  975, 1022, 1021
 976,  975,  976, 1023, 1022
 977,  976,  977, 1024, 1023
 978,  977,  978, 1025, 1024
 979,  978,  979, 1026, 1025
 980,  979,  980, 1027, 1026
 981,  980,  981, 1028, 1027
 982,  981,  982, 1029, 1028
 983,  982,  983, 1030, 1029
 984,  983,  984, 1031, 1030
 985,  984,  985, 1032, 1031
 986,  985,  986, 1033, 1032
 987,  986,  987, 1034, 1033
 988, 1034,  988, 1035, 1081
 989,  988,  989, 1036, 1035
 990,  989,  990, 1037, 1036
 991,  990,  991, 1038, 1037
 992,  991,  992, 1039, 1038
 993,  992,  993, 1040, 1039
 994,  993,  994, 1041, 1040
 995,  994,  995, 1042, 1041
 996,  995,  996, 1043, 1042
 997,  996,  997, 1044, 1043
 998,  997,  998, 1045, 1044
 999,  998,  999, 1046, 1045
1000,  999, 1000, 1047, 1046
1001, 1000, 1001, 1048, 1047
1002, 1001, 1002, 1049, 1048
1003, 1002, 1003, 1050, 1049
1004, 1003, 1004, 1051, 1050
1005, 1004, 1005, 1052, 1051
1006, 1005, 1006, 1053, 1052
1007, 1006, 1007, 1054, 1053
1008, 1007, 1008, 1055, 1054
1009, 1008, 1009, 1056, 1055
1010, 1009, 1010, 1057, 1056
1011, 1010, 1011, 1058, 1057
1012, 1011, 1012, 1059, 1058
1013, 1012, 1013, 1060, 1059
1014, 1013, 1014, 1061, 1060
1015, 1014, 1015, 1062, 1061
1016, 1015, 1016, 1063, 1062
1017, 1016, 1017, 1064, 1063
1018, 1017, 1018, 1065, 1064
1019, 1018, 1019, 1066, 1065
1020, 1019, 1020, 1067, 1066
1021, 1020, 1021, 1068, 1067
1022, 1021, 1022, 1069, 1068
1023, 1022, 1023, 1070, 1069
1024, 1023, 1024, 1071, 1070
1025, 1024, 1025, 1072, 1071
1026, 1025, 1026, 1073, 1072
1027, 1026, 1027, 1074, 1073
1028, 1027, 1028, 1075, 1074
1029, 1028, 1029, 1076, 1075
1030, 1029, 1030, 1077, 1076
1031, 1030, 1031, 1078, 1077
1032, 1031, 1032, 1079, 1078
1033, 1032, 1033, 1080, 1079
1034, 1033, 1034, 1081, 1080
1035, 1081, 1035, 1082, 1128
1036, 1035, 1036, 1083, 1082
1037, 1036, 1037, 1084, 1083
1038, 1037, 1038, 1085, 1084
1039, 1038, 1039, 1086, 1085
1040, 1039, 1040, 1087, 1086
1041, 1040, 1041, 1088, 1087
1042, 1041, 1042, 1089, 1088
1043, 1042, 1043, 1090, 1089
1044, 1043, 1044, 1091, 1090
1045, 1044, 1045, 1092, 1091
1046, 1045, 1046, 1093, 1092
1047, 1046, 1047, 1094, 1093
1048, 1047, 1048, 1095, 1094
1049, 1048, 1049, 1096, 1095
1050, 1049, 1050, 1097, 1096
1051, 1050, 1051, 1098, 1097
1052, 1051, 1052, 1099, 1098
1053, 1052, 1053, 1100, 1099
1054, 1053, 1054, 1101, 1100
1055, 1054, 1055, 1102, 1101
1056, 1055, 1056, 1103, 1102
1057, 1056, 1057, 1104, 1103
1058, 1057, 1058, 1105, 1104
1059, 1058, 1059, 1106, 1105
1060, 1059, 1060, 1107, 1106
1061, 1060, 1061, 1108, 1107
1062, 1061, 1062, 1109, 1108
1063, 1062, 1063, 1110, 1109
1064, 1063, 1064, 1111, 1110
1065, 1064, 1065, 1112, 1111
1066, 1065, 1066, 1113, 1112
1067, 1066, 1067, 1114, 1113
1068, 1067, 1068, 1115, 1114
1069, 1068, 1069, 1116, 1115
1070, 1069, 1070, 1117, 1116
1071, 1070, 1071, 1118, 1117
1072, 1071, 1072, 1119, 1118
1073, 1072, 1073, 1120, 1119
1074, 1073, 1074, 1121, 1120
1075, 1074, 1075, 1122, 1121
1076, 1075, 1076, 1123, 1122
1077, 1076, 1077, 1124, 1123
1078, 1077, 1078, 1125, 1124
1079, 1078, 1079, 1126, 1125
1080, 1079, 1080, 1127, 1126
1081, 1080, 1081, 1128, 1127
1082, 1128, 1082, 1129, 1175
1083, 1082, 1083, 1130, 1129
1084, 1083, 1084, 1131, 1130
1085, 1084, 1085, 1132, 1131
1086, 1085, 1086, 1133, 1132
1087, 1086, 1087, 1134, 1133
1088, 1087, 1088, 1135, 1134
1089, 1088, 1089, 1136, 1135
1090, 1089, 1090, 1137, 1136
1091, 1090, 1091, 1138, 1137
1092, 1091, 1092, 1139, 1138
1093, 1092, 1093, 1140, 1139
1094, 1093, 1094, 1141, 1140
1095, 1094, 1095, 1142, 1141
1096, 1095, 1096, 1143, 1142
1097, 1096, 1097, 1144, 1143
1098, 1097, 1098, 1145, 1144
1099, 1098, 1099, 1146, 1145
1100, 1099, 1100, 1147, 1146
1101, 1100, 1101, 1148, 1147
1102, 1101, 1102, 1149, 1148
1103, 1102, 1103, 1150, 1149
1104, 1103, 1104, 1151, 1150
1105, 1104, 1105, 1152, 1151
1106, 1105, 1106, 1153, 1152
1107, 1106, 1107, 1154, 1153
1108, 1107, 1108, 1155, 1154
1109, 1108, 1109, 1156, 1155
1110, 1109, 1110, 1157, 1156
1111, 1110, 1111, 1158, 1157
1112, 1111, 1112, 1159, 1158
1113, 1112, 1113, 1160, 1159
1114, 1113, 1114, 1161, 1160
1115, 1114, 1115, 1162, 1161
1116, 1115, 1116, 1163, 1162
1117, 1116, 1117, 1164, 1163
1118, 1117, 1118, 1165, 1164
1119, 1118, 1119, 1166, 1165
1120, 1119, 1120, 1167, 1166
1121, 1120, 1121, 1168, 1167
1122, 1121, 1122, 1169, 1168
1123, 1122, 1123, 1170, 1169
1124, 1123, 1124, 1171, 1170
1125, 1124, 1125, 1172, 1171
1126, 1125, 1126, 1173, 1172
1127, 1126, 1127, 1174, 1173
1128, 1127, 1128, 1175, 1174
1129, 1175, 1129, 1176, 1222
1130, 1129, 1130, 1177, 1176
1131, 1130, 1131, 1178, 1177
1132, 1131, 1132, 1179, 1178
1133, 1132, 1133, 1180, 1179
1134, 1133, 1134, 1181, 1180
1135, 1134, 1135, 1182, 1181
1136, 1135, 1136, 1183, 1182
1137, 1136, 1137, 1184, 1183
1138, 1137, 1138, 1185, 1184
1139, 1138, 1139, 1186, 1185
1140, 1139, 1140, 1187, 1186
1141, 1140, 1141, 1188, 1187
1142, 1141, 1142, 1189, 1188
1143, 1142, 1143, 1190, 1189
1144, 1143, 1144, 1191, 1190
1145, 1144, 1145, 1192, 1191
1146, 1145, 1146, 1193, 1192
1147, 1146, 1147, 1194, 1193
1148, 1147, 1148, 1195, 1194
1149, 1148, 1149, 1196, 1195
1150, 1149, 1150, 1197, 1196
1151, 1150, 1151, 1198, 1197
1152, 1151, 1152, 1199, 1198
1153, 1152, 1153, 1200, 1199
1154, 1153, 1154, 1201, 1200
1155, 1154, 1155, 1202, 1201
1156, 1155, 1156, 1203, 1202
1157, 1156, 1157, 1204, 1203
1158, 1157, 1158, 1205, 1204
1159, 1158, 1159, 1206, 1205
1160, 1159, 1160, 1207, 1206
1161, 1160, 1161, 1208, 1207
1162, 1161, 1162, 1209, 1208
1163, 1162, 1163, 1210, 1209
1164, 1163, 1164, 1211, 1210
1165, 1164, 1165, 1212, 1211
1166, 1165, 1166, 1213, 1212
1167, 1166, 1167, 1214, 1213
1168, 1167, 1168, 1215, 1214
1169, 1168, 1169, 1216, 1215
1170, 1169, 1170, 1217, 1216
1171, 1170, 1171, 1218, 1217
1172, 1171, 1172, 1219, 1218
1173, 1172, 1173, 1220, 1219
1174, 1173, 1174, 1221, 1220
1175, 1174, 1175, 1222, 1221
1176, 1222, 1176, 1223, 1269
1177, 1176, 1177, 1224, 1223
1178, 1177, 1178, 1225, 1224
1179, 1178, 1179, 1226, 1225
1180, 1179, 1180, 1227, 1226
1181, 1180, 1181, 1228, 1227
1182, 1181, 1182, 1229, 1228
1183, 1182, 1183, 1230, 1229
1184, 1183, 1184, 1231, 1230
1185, 1184, 1185, 1232, 1231
1186, 1185, 1186, 1233, 1232
1187, 1186, 1187, 1234, 1233
1188, 1187, 1188, 1235, 1234
1189, 1188, 1189, 1236, 1235
1190, 1189, 1190, 1237, 1236
1191, 1190, 1191, 1238, 1237
1192, 1191, 1192, 1239, 1238
1193, 1192, 1193, 1240, 1239
1194, 1193, 1194, 1241, 1240
1195, 1194, 1195, 1242, 1241
1196, 1195, 1196, 1243, 1242
1197, 1196, 1197, 1244, 1243
1198, 1197, 1198, 1245, 1244
1199, 1198, 1199, 1246, 1245
1200, 1199, 1200, 1247, 1246
1201, 1200, 1201, 1248, 1247
1202, 1201, 1202, 1249, 1248
1203, 1202, 1203, 1250, 1249
1204, 1203, 1204, 1251, 1250
1205, 1204, 1205, 1252, 1251
1206, 1205, 1206, 1253, 1252
1207, 1206, 1207, 1254, 1253
1208, 1207, 1208, 1255, 1254
1209, 1208, 1209, 1256, 1255
1210, 1209, 1210, 1257, 1256
1211, 1210, 1211, 1258, 1257
1212, 1211, 1212, 1259, 1258
1213, 1212, 1213, 1260, 1259
1214, 1213, 1214, 1261, 1260
1215, 1214, 1215, 1262, 1261
1216, 1215, 1216, 1263, 1262
1217, 1216, 1217, 1264, 1263
1218, 1217, 1218, 1265, 1264
1219, 1218, 1219, 1266, 1265
1220, 1219, 1220, 1267, 1266
1221, 1220, 1221, 1268, 1267
1222, 1221, 1222, 1269, 1268
1223, 1269, 1223, 1270, 1316
1224, 1223, 1224, 1271, 1270
1225, 1224, 1225, 1272, 1271
1226, 1225, 1226, 1273, 1272
1227, 1226, 1227, 1274, 1273
1228, 1227, 1228, 1275, 1274
1229, 1228, 1229, 1276, 1275
1230, 1229, 1230, 1277, 1276
1231, 1230, 1231, 1278, 1277
1232, 1231, 1232, 1279, 1278
1233, 1232, 1233, 1280, 1279
1234, 1233, 1234, 1281, 1280
1235, 1234, 1235, 1282, 1281
1236, 1235, 1236, 1283, 1282
1237, 1236, 1237, 1284, 1283
1238, 1237, 1238, 1285, 1284
1239, 1238, 1239, 1286, 1285
1240, 1239, 1240, 1287, 1286
1241, 1240, 1241, 1288, 1287
1242, 1241, 1242, 1289, 1288
1243, 1242, 1243, 1290, 1289
1244, 1243, 1244, 1291, 1290
1245, 1244, 1245, 1292, 1291
1246, 1245, 1246, 1293, 1292
1247, 1246, 1247, 1294, 1293
1248, 1247, 1248, 1295, 1294
1249, 1248, 1249, 1296, 1295
1250, 1249, 1250, 1297, 1296
1251, 1250, 1251, 1298, 1297
1252, 1251, 1252, 1299, 1298
1253, 1252, 1253, 1300, 1299
1254, 1253, 1254, 1301, 1300
1255, 1254, 1255, 1302, 1301
1256, 1255, 1256, 1303, 1302
1257, 1256, 1257, 1304, 1303
1258, 1257, 1258, 1305, 1304
1259, 1258, 1259, 1306, 1305
1260, 1259, 1260, 1307, 1306
1261, 1260, 1261, 1308, 1307
1262, 1261, 1262, 1309, 1308
1263, 1262, 1263, 1310, 1309
1264, 1263, 1264, 1311, 1310
1265, 1264, 1265, 1312, 1311
1266, 1265, 1266, 1313, 1312
1267, 1266, 1267, 1314, 1313
1268, 1267, 1268, 1315, 1314
1269, 1268, 1269, 1316, 1315
1270, 1316, 1270, 1317, 1363
1271, 1270, 1271, 1318, 1317
1272, 1271, 1272, 1319, 1318
1273, 1272, 1273, 1320, 1319
1274, 1273, 1274, 1321, 1320
1275, 1274, 1275, 1322, 1321
1276, 1275, 1276, 1323, 1322
1277, 1276, 1277, 1324, 1323
1278, 1277, 1278, 1325, 1324
1279, 1278, 1279, 1326, 1325
1280, 1279, 1280, 1327, 1326
1281, 1280, 1281, 1328, 1327
1282, 1281, 1282, 1329, 1328
1283, 1282, 1283, 1330, 1329
1284, 1283, 1284, 1331, 1330
1285, 1284, 1285, 1332, 1331
1286, 1285, 1286, 1333, 1332
1287, 1286, 1287, 1334, 1333
1288, 1287, 1288, 1335, 1334
1289, 1288, 1289, 1336, 1335
1290, 1289, 1290, 1337, 1336
1291, 1290, 1291, 1338, 1337
1292, 1291, 1292, 1339, 1338
1293, 1292, 1293, 1340, 1339
1294, 1293, 1294, 1341, 1340
1295, 1294, 1295, 1342, 1341
1296, 1295, 1296, 1343, 1342
1297, 1296, 1297, 1344, 1343
1298, 1297, 1298, 1345, 1344
1299, 1298, 1299, 1346, 1345
1300, 1299, 1300, 1347, 1346
1301, 1300, 1301, 1348, 1347
1302, 1301, 1302, 1349, 1348
1303, 1302, 1303, 1350, 1349
1304, 1303, 1304, 1351, 1350
1305, 1304, 1305, 1352, 1351
1306, 1305, 1306, 1353, 1352
1307, 1306, 1307, 1354, 1353
1308, 1307, 1308, 1355, 1354
1309, 1308, 1309, 1356, 1355
1310, 1309, 1310, 1357, 1356
1311, 1310, 1311, 1358, 1357
1312, 1311, 1312, 1359, 1358
1313, 1312, 1313, 1360, 1359
1314, 1313, 1314, 1361, 1360
1315, 1314, 1315, 1362, 1361
1316, 1315, 1316, 1363, 1362
1317, 1363, 1317, 1364, 1410
1318, 1317, 1318, 1365, 1364
1319, 1318, 1319, 1366, 1365
1320, 1319, 1320, 1367, 1366
1321, 1320, 1321, 1368, 1367
1322, 1321, 1322, 1369, 1368
1323, 1322, 1323, 1370, 1369
1324, 1323, 1324, 1371, 1370
1325, 1324, 1325, 1372, 1371
1326, 1325, 1326, 1373, 1372
1327, 1326, 1327, 1374, 1373
1328, 1327, 1328, 1375, 1374
1329, 1328, 1329, 1376, 1375
1330, 1329, 1330, 1377, 1376
1331, 1330, 1331, 1378, 1377
1332, 1331, 1332, 1379, 1378
1333, 1332, 1333, 1380, 1379
1334, 1333, 1334, 1381, 1380
1335, 1334, 1335, 1382, 1381
1336, 1335, 1336, 1383, 1382
1337, 1336, 1337, 1384, 1383
1338, 1337, 1338, 1385, 1384
1339, 1338, 1339, 1386, 1385
1340, 1339, 1340, 1387, 1386
1341, 1340, 1341, 1388, 1387
1342, 1341, 1342, 1389, 1388
1343, 1342, 1343, 1390, 1389
1344, 1343, 1344, 1391, 1390
1345, 1344, 1345, 1392, 1391
1346, 1345, 1346, 1393, 1392
1347, 1346, 1347, 1394, 1393
1348, 1347, 1348, 1395, 1394
1349, 1348, 1349, 1396, 1395
1350, 1349, 1350, 1397, 1396
1351, 1350, 1351, 1398, 1397
1352, 1351, 1352, 1399, 1398
1353, 1352, 1353, 1400, 1399
1354, 1353, 1354, 1401, 1400
1355, 1354, 1355, 1402, 1401
1356, 1355, 1356, 1403, 1402
1357, 1356, 1357, 1404, 1403
1358, 1357, 1358, 1405, 1404
1359, 1358, 1359, 1406, 1405
1360, 1359, 1360, 1407, 1406
1361, 1360, 1361, 1408, 1407
1362, 1361, 1362, 1409, 1408
1363, 1362, 1363, 1410, 1409
1364, 1410, 1364, 1411, 1457
1365, 1364, 1365, 1412, 1411
1366, 1365, 1366, 1413, 1412
1367, 1366, 1367, 1414, 1413
1368, 1367, 1368, 1415, 1414
1369, 1368, 1369, 1416, 1415
1370, 1369, 1370, 1417, 1416
1371, 1370, 1371, 1418, 1417
1372, 1371, 1372, 1419, 1418
1373, 1372, 1373, 1420, 1419
1374, 1373, 1374, 1421, 1420
1375, 1374, 1375, 1422, 1421
1376, 1375, 1376, 1423, 1422
1377, 1376, 1377, 1424, 1423
1378, 1377, 1378, 1425, 1424
1379, 1378, 1379, 1426, 1425
1380, 1379, 1380, 1427, 1426
1381, 1380, 1381, 1428, 1427
1382, 1381, 1382, 1429, 1428
1383, 1382, 1383, 1430, 1429
1384, 1383, 1384, 1431, 1430
1385, 1384, 1385, 1432, 1431
1386, 1385, 1386, 1433, 1432
1387, 1386, 1387, 1434, 1433
1388, 1387, 1388, 1435, 1434
1389, 1388, 1389, 1436, 1435
1390, 1389, 1390, 1437, 1436
1391, 1390, 1391, 1438, 1437
1392, 1391, 1392, 1439, 1438
1393, 1392, 1393, 1440, 1439
1394, 1393, 1394, 1441, 1440
1395, 1394, 1395, 1442, 1441
1396, 1395, 1396, 1443, 1442
1397, 1396, 1397, 1444, 1443
1398, 1397, 1398, 1445, 1444
1399, 1398, 1399, 1446, 1445
1400, 1399, 1400, 1447, 1446
1401, 1400, 1401, 1448, 1447
1402, 1401, 1402, 1449, 1448
1403, 1402, 1403, 1450, 1449
1404, 1403, 1404, 1451, 1450
1405, 1404, 1405, 1452, 1451
1406, 1405, 1406, 1453, 1452
1407, 1406, 1407, 1454, 1453
1408, 1407, 1408, 1455, 1454
1409, 1408, 1409, 1456, 1455
1410, 1409, 1410, 1457, 1456
*Orientation, name=Ori-1
1., 0., 0., 0., 1., 0.
1, 0.
** Region: (CompositeLayup-1-1: Generated From Layup)
*Elset, elset=CompositeLayup-1-1, generate
    1,  1410,     1
** Section: CompositeLayup-1-1
*Shell Section, elset=CompositeLayup-1-1, composite, orientation=Ori-1, density=0., layup=CompositeLayup-1
0.412075, 3, Composite, 58.534, Ply-1
0.412075, 3, Composite, -58.534, Ply-2
0.412075, 3, Composite, 58.574, Ply-3
0.412075, 3, Composite, -58.574, Ply-4
0.412075, 3, Composite, 58.534, Ply-5
0.412075, 3, Composite, -58.534, Ply-6
0.412075, 3, Composite, 58.574, Ply-7
0.412075, 3, Composite, -58.574, Ply-8
0.412075, 3, Composite, 58.534, Ply-9
0.412075, 3, Composite, -58.534, Ply-10
0.412075, 3, Composite, 58.574, Ply-11
0.412075, 3, Composite, -58.574, Ply-12
0.412075, 3, Composite, 58.534, Ply-13
0.412075, 3, Composite, -58.534, Ply-14
0.412075, 3, Composite, 58.574, Ply-15
0.412075, 3, Composite, -58.574, Ply-16
0.412075, 3, Composite, 58.534, Ply-17
0.412075, 3, Composite, -58.534, Ply-18
0.412075, 3, Composite, 58.574, Ply-19
0.412075, 3, Composite, -58.574, Ply-20
0.412075, 3, Composite, 58.534, Ply-21
0.412075, 3, Composite, -58.534, Ply-22
0.412075, 3, Composite, 58.574, Ply-23
0.412075, 3, Composite, -58.574, Ply-24
0.412075, 3, Composite, 58.534, Ply-25
0.412075, 3, Composite, -58.534, Ply-26
0.412075, 3, Composite, 58.574, Ply-27
0.412075, 3, Composite, -58.574, Ply-28
0.412075, 3, Composite, 58.534, Ply-29
0.412075, 3, Composite, -58.534, Ply-30
0.412075, 3, Composite, 58.574, Ply-31
0.412075, 3, Composite, -58.574, Ply-32
0.412075, 3, Composite, 58.534, Ply-33
0.412075, 3, Composite, -58.534, Ply-34
0.412075, 3, Composite, 58.574, Ply-35
0.412075, 3, Composite, -58.574, Ply-36
0.412075, 3, Composite, 58.534, Ply-37
0.412075, 3, Composite, -58.534, Ply-38
0.412075, 3, Composite, 58.574, Ply-39
0.412075, 3, Composite, -58.574, Ply-40
*End Part
**
**
** ASSEMBLY
**
*Assembly, name=Assembly
**
*Instance, name=CompositeHull-1, part=CompositeHull
*End Instance
**
*Nset, nset=_PickedSet5, internal, instance=CompositeHull-1, generate
  1,  47,   1
*Elset, elset=_PickedSet5, internal, instance=CompositeHull-1, generate
  1,  47,   1
*Nset, nset=_PickedSet6, internal, instance=CompositeHull-1, generate
 1411,  1457,     1
*Elset, elset=_PickedSet6, internal, instance=CompositeHull-1, generate
 1364,  1410,     1
*Elset, elset=__PickedSurf7_SPOS, internal, instance=CompositeHull-1, generate
    1,  1410,     1
*Surface, type=ELEMENT, name=_PickedSurf7, internal
__PickedSurf7_SPOS, SPOS
*End Assembly
**
** MATERIALS
**
*Material, name=Composite
*Density
 1.55e-09,
*Elastic, type=LAMINA
102000.,7000., 0.16,3350.,3350.,2680.
*Fail Stress
1400.,1050.,  28., 105.,  75.,   0.,   0.
**
** BOUNDARY CONDITIONS
**
** Name: BC-End-0 Type: �Գ�/���Գ�/��ȫ�̶�
*Boundary
_PickedSet5, ENCASTRE
** Name: BC-End-1 Type: �Գ�/���Գ�/��ȫ�̶�
*Boundary
_PickedSet6, ENCASTRE
** ----------------------------------------------------------------
**
** STEP: Step-1
**
*Imperfection, file=C2, step=1
1, 0.949355093
*Step, name=Step-1, nlgeom=YES, inc=220
*Static, riks
0.01, 1., 1e-10, 0.1, ,
**
** LOADS
**
** Name: ExternalPressure   Type: Pressure
*Dsload
_PickedSurf7, P, 50.
**
** OUTPUT REQUESTS
**
*Restart, write, frequency=0
**
** FIELD OUTPUT: F-Output-1
**
*Output, field, variable=PRESELECT
**
** HISTORY OUTPUT: H-Output-1
**
*Output, history, variable=PRESELECT
*End Step
