*Heading
 CSDM_cph pressure hull linear buckling
** Job name: C7 Model name: CPH_Model
** Generated by: Abaqus/CAE 2023
*Preprint, echo=NO, model=NO, history=NO, contact=NO
**
** PARTS
**
*Part, name=CompositeHull
*Node
      1,   87.6553955,           0.,  -11.3019114
      2,   85.4904861,           0.,  -22.4182453
      3,   81.9218292,           0.,  -33.1664734
      4,   77.0080185,           0.,  -43.3701096
      5,   70.8297348,           0.,  -52.8616066
      6,   63.4884338,           0.,  -61.4851189
      7,   55.1046524,           0.,  -69.0990448
      8,   45.8160553,           0.,  -75.5783691
      9,   35.7751579,           0.,  -80.8167038
     10,   25.1468334,           0.,  -84.7280197
     11,   14.1055984,           0.,  -87.2481155
     12,   2.83275056,           0.,  -88.3355942
     13,  -8.48661137,           0.,  -87.9726028
     14,  -19.6666222,           0.,  -86.1651001
     15,  -30.5237083,           0.,  -82.9427795
     16,  -40.8795967,           0.,  -78.3585358
     17,  -50.5642433,           0.,  -72.4876404
     18,  -59.4186249,           0.,   -65.426506
     19,  -67.2973557,           0.,  -57.2910728
     20,  -74.0710678,           0.,    -48.21492
     21,  -79.6285324,           0.,  -38.3470802
     22,  -83.8784943,           0.,  -27.8495789
     23,  -86.7511826,           0.,  -16.8947906
     24,  -88.1994095,           0.,  -5.66259003
     25,  -88.1994095,           0.,   5.66259003
     26,  -86.7511826,           0.,   16.8947906
     27,  -83.8784943,           0.,   27.8495789
     28,  -79.6285324,           0.,   38.3470802
     29,  -74.0710678,           0.,     48.21492
     30,  -67.2973557,           0.,   57.2910728
     31,  -59.4186249,           0.,    65.426506
     32,  -50.5642433,           0.,   72.4876404
     33,  -40.8795967,           0.,   78.3585358
     34,  -30.5237083,           0.,   82.9427795
     35,  -19.6666222,           0.,   86.1651001
     36,  -8.48661137,           0.,   87.9726028
     37,   2.83275056,           0.,   88.3355942
     38,   14.1055984,           0.,   87.2481155
     39,   25.1468334,           0.,   84.7280197
     40,   35.7751579,           0.,   80.8167038
     41,   45.8160553,           0.,   75.5783691
     42,   55.1046524,           0.,   69.0990448
     43,   63.4884338,           0.,   61.4851189
     44,   70.8297348,           0.,   52.8616066
     45,   77.0080185,           0.,   43.3701096
     46,   81.9218292,           0.,   33.1664734
     47,   85.4904861,           0.,   22.4182453
     48,   87.6553955,           0.,   11.3019114
     49,   88.3809967,           0.,           0.
     50,   87.6553955,   11.4216003,  -11.3019114
     51,   85.4904861,   11.4216003,  -22.4182453
     52,   81.9218292,   11.4216003,  -33.1664734
     53,   77.0080185,   11.4216003,  -43.3701096
     54,   70.8297348,   11.4216003,  -52.8616066
     55,   63.4884338,   11.4216003,  -61.4851189
     56,   55.1046524,   11.4216003,  -69.0990448
     57,   45.8160553,   11.4216003,  -75.5783691
     58,   35.7751579,   11.4216003,  -80.8167038
     59,   25.1468353,   11.4216003,  -84.7280197
     60,   14.1055984,   11.4216003,  -87.2481155
     61,   2.83275056,   11.4216003,  -88.3355942
     62,  -8.48661137,   11.4216003,  -87.9726028
     63,  -19.6666222,   11.4216003,  -86.1651001
     64,  -30.5237083,   11.4216003,  -82.9427795
     65,  -40.8795967,   11.4216003,  -78.3585358
     66,  -50.5642433,   11.4216003,  -72.4876404
     67,  -59.4186249,   11.4216003,   -65.426506
     68,  -67.2973557,   11.4216003,  -57.2910728
     69,  -74.0710678,   11.4216003,    -48.21492
     70,  -79.6285324,   11.4216003,  -38.3470802
     71,  -83.8784943,   11.4216003,  -27.8495789
     72,  -86.7511826,   11.4216003,  -16.8947906
     73,  -88.1994095,   11.4216003,  -5.66259003
     74,  -88.1994095,   11.4216003,   5.66259003
     75,  -86.7511826,   11.4216003,   16.8947906
     76,  -83.8784943,   11.4216003,   27.8495789
     77,  -79.6285324,   11.4216003,   38.3470802
     78,  -74.0710678,   11.4216003,     48.21492
     79,  -67.2973557,   11.4216003,   57.2910728
     80,  -59.4186249,   11.4216003,    65.426506
     81,  -50.5642433,   11.4216003,   72.4876404
     82,  -40.8795967,   11.4216003,   78.3585358
     83,  -30.5237083,   11.4216003,   82.9427795
     84,  -19.6666222,   11.4216003,   86.1651001
     85,  -8.48661137,   11.4216003,   87.9726028
     86,   2.83275056,   11.4216003,   88.3355942
     87,   14.1055984,   11.4216003,   87.2481155
     88,   25.1468353,   11.4216003,   84.7280197
     89,   35.7751579,   11.4216003,   80.8167038
     90,   45.8160553,   11.4216003,   75.5783691
     91,   55.1046524,   11.4216003,   69.0990448
     92,   63.4884338,   11.4216003,   61.4851189
     93,   70.8297348,   11.4216003,   52.8616066
     94,   77.0080185,   11.4216003,   43.3701096
     95,   81.9218292,   11.4216003,   33.1664734
     96,   85.4904861,   11.4216003,   22.4182453
     97,   87.6553955,   11.4216003,   11.3019114
     98,   88.3809967,   11.4216003,           0.
     99,   87.6553955,   22.8432007,  -11.3019114
    100,   85.4904861,   22.8432007,  -22.4182453
    101,   81.9218292,   22.8432007,  -33.1664734
    102,   77.0080185,   22.8432007,  -43.3701096
    103,   70.8297348,   22.8432007,  -52.8616066
    104,   63.4884338,   22.8432007,  -61.4851189
    105,   55.1046524,   22.8432007,  -69.0990448
    106,   45.8160553,   22.8432007,  -75.5783691
    107,   35.7751579,   22.8432007,  -80.8167038
    108,   25.1468353,   22.8432007,  -84.7280197
    109,   14.1055984,   22.8432007,  -87.2481155
    110,   2.83275056,   22.8432007,  -88.3355942
    111,  -8.48661137,   22.8432007,  -87.9726028
    112,  -19.6666222,   22.8432007,  -86.1651001
    113,  -30.5237083,   22.8432007,  -82.9427795
    114,  -40.8795967,   22.8432007,  -78.3585358
    115,  -50.5642433,   22.8432007,  -72.4876404
    116,  -59.4186249,   22.8432007,   -65.426506
    117,  -67.2973557,   22.8432007,  -57.2910728
    118,  -74.0710678,   22.8432007,    -48.21492
    119,  -79.6285324,   22.8432007,  -38.3470802
    120,  -83.8784943,   22.8432007,  -27.8495789
    121,  -86.7511826,   22.8432007,  -16.8947906
    122,  -88.1994095,   22.8432007,  -5.66259003
    123,  -88.1994095,   22.8432007,   5.66259003
    124,  -86.7511826,   22.8432007,   16.8947906
    125,  -83.8784943,   22.8432007,   27.8495789
    126,  -79.6285324,   22.8432007,   38.3470802
    127,  -74.0710678,   22.8432007,     48.21492
    128,  -67.2973557,   22.8432007,   57.2910728
    129,  -59.4186249,   22.8432007,    65.426506
    130,  -50.5642433,   22.8432007,   72.4876404
    131,  -40.8795967,   22.8432007,   78.3585358
    132,  -30.5237083,   22.8432007,   82.9427795
    133,  -19.6666222,   22.8432007,   86.1651001
    134,  -8.48661137,   22.8432007,   87.9726028
    135,   2.83275056,   22.8432007,   88.3355942
    136,   14.1055984,   22.8432007,   87.2481155
    137,   25.1468353,   22.8432007,   84.7280197
    138,   35.7751579,   22.8432007,   80.8167038
    139,   45.8160553,   22.8432007,   75.5783691
    140,   55.1046524,   22.8432007,   69.0990448
    141,   63.4884338,   22.8432007,   61.4851189
    142,   70.8297348,   22.8432007,   52.8616066
    143,   77.0080185,   22.8432007,   43.3701096
    144,   81.9218292,   22.8432007,   33.1664734
    145,   85.4904861,   22.8432007,   22.4182453
    146,   87.6553955,   22.8432007,   11.3019114
    147,   88.3809967,   22.8432007,           0.
    148,   87.6553955,    34.264801,  -11.3019114
    149,   85.4904861,    34.264801,  -22.4182453
    150,   81.9218292,    34.264801,  -33.1664734
    151,   77.0080185,    34.264801,  -43.3701096
    152,   70.8297348,    34.264801,  -52.8616066
    153,   63.4884338,    34.264801,  -61.4851189
    154,   55.1046524,    34.264801,  -69.0990448
    155,   45.8160553,    34.264801,  -75.5783691
    156,   35.7751579,    34.264801,  -80.8167038
    157,   25.1468353,    34.264801,  -84.7280197
    158,   14.1055984,    34.264801,  -87.2481155
    159,   2.83275056,    34.264801,  -88.3355942
    160,  -8.48661137,    34.264801,  -87.9726028
    161,  -19.6666222,    34.264801,  -86.1651001
    162,  -30.5237083,    34.264801,  -82.9427795
    163,  -40.8795967,    34.264801,  -78.3585358
    164,  -50.5642433,    34.264801,  -72.4876404
    165,  -59.4186249,    34.264801,   -65.426506
    166,  -67.2973557,    34.264801,  -57.2910728
    167,  -74.0710678,    34.264801,    -48.21492
    168,  -79.6285324,    34.264801,  -38.3470802
    169,  -83.8784943,    34.264801,  -27.8495789
    170,  -86.7511826,    34.264801,  -16.8947906
    171,  -88.1994095,    34.264801,  -5.66259003
    172,  -88.1994095,    34.264801,   5.66259003
    173,  -86.7511826,    34.264801,   16.8947906
    174,  -83.8784943,    34.264801,   27.8495789
    175,  -79.6285324,    34.264801,   38.3470802
    176,  -74.0710678,    34.264801,     48.21492
    177,  -67.2973557,    34.264801,   57.2910728
    178,  -59.4186249,    34.264801,    65.426506
    179,  -50.5642433,    34.264801,   72.4876404
    180,  -40.8795967,    34.264801,   78.3585358
    181,  -30.5237083,    34.264801,   82.9427795
    182,  -19.6666222,    34.264801,   86.1651001
    183,  -8.48661137,    34.264801,   87.9726028
    184,   2.83275056,    34.264801,   88.3355942
    185,   14.1055984,    34.264801,   87.2481155
    186,   25.1468353,    34.264801,   84.7280197
    187,   35.7751579,    34.264801,   80.8167038
    188,   45.8160553,    34.264801,   75.5783691
    189,   55.1046524,    34.264801,   69.0990448
    190,   63.4884338,    34.264801,   61.4851189
    191,   70.8297348,    34.264801,   52.8616066
    192,   77.0080185,    34.264801,   43.3701096
    193,   81.9218292,    34.264801,   33.1664734
    194,   85.4904861,    34.264801,   22.4182453
    195,   87.6553955,    34.264801,   11.3019114
    196,   88.3809967,    34.264801,           0.
    197,   87.6553955,   45.6864014,  -11.3019114
    198,   85.4904861,   45.6864014,  -22.4182453
    199,   81.9218292,   45.6864014,  -33.1664734
    200,   77.0080185,   45.6864014,  -43.3701096
    201,   70.8297348,   45.6864014,  -52.8616066
    202,   63.4884338,   45.6864014,  -61.4851189
    203,   55.1046524,   45.6864014,  -69.0990448
    204,   45.8160553,   45.6864014,  -75.5783691
    205,   35.7751579,   45.6864014,  -80.8167038
    206,   25.1468353,   45.6864014,  -84.7280197
    207,   14.1055984,   45.6864014,  -87.2481155
    208,   2.83275056,   45.6864014,  -88.3355942
    209,  -8.48661137,   45.6864014,  -87.9726028
    210,  -19.6666222,   45.6864014,  -86.1651001
    211,  -30.5237083,   45.6864014,  -82.9427795
    212,  -40.8795967,   45.6864014,  -78.3585358
    213,  -50.5642433,   45.6864014,  -72.4876404
    214,  -59.4186249,   45.6864014,   -65.426506
    215,  -67.2973557,   45.6864014,  -57.2910728
    216,  -74.0710678,   45.6864014,    -48.21492
    217,  -79.6285324,   45.6864014,  -38.3470802
    218,  -83.8784943,   45.6864014,  -27.8495789
    219,  -86.7511826,   45.6864014,  -16.8947906
    220,  -88.1994095,   45.6864014,  -5.66259003
    221,  -88.1994095,   45.6864014,   5.66259003
    222,  -86.7511826,   45.6864014,   16.8947906
    223,  -83.8784943,   45.6864014,   27.8495789
    224,  -79.6285324,   45.6864014,   38.3470802
    225,  -74.0710678,   45.6864014,     48.21492
    226,  -67.2973557,   45.6864014,   57.2910728
    227,  -59.4186249,   45.6864014,    65.426506
    228,  -50.5642433,   45.6864014,   72.4876404
    229,  -40.8795967,   45.6864014,   78.3585358
    230,  -30.5237083,   45.6864014,   82.9427795
    231,  -19.6666222,   45.6864014,   86.1651001
    232,  -8.48661137,   45.6864014,   87.9726028
    233,   2.83275056,   45.6864014,   88.3355942
    234,   14.1055984,   45.6864014,   87.2481155
    235,   25.1468353,   45.6864014,   84.7280197
    236,   35.7751579,   45.6864014,   80.8167038
    237,   45.8160553,   45.6864014,   75.5783691
    238,   55.1046524,   45.6864014,   69.0990448
    239,   63.4884338,   45.6864014,   61.4851189
    240,   70.8297348,   45.6864014,   52.8616066
    241,   77.0080185,   45.6864014,   43.3701096
    242,   81.9218292,   45.6864014,   33.1664734
    243,   85.4904861,   45.6864014,   22.4182453
    244,   87.6553955,   45.6864014,   11.3019114
    245,   88.3809967,   45.6864014,           0.
    246,   87.6553955,   57.1080017,  -11.3019114
    247,   85.4904861,   57.1080017,  -22.4182453
    248,   81.9218292,   57.1080017,  -33.1664734
    249,   77.0080185,   57.1080017,  -43.3701096
    250,   70.8297348,   57.1080017,  -52.8616066
    251,   63.4884338,   57.1080017,  -61.4851189
    252,   55.1046524,   57.1080017,  -69.0990448
    253,   45.8160553,   57.1080017,  -75.5783691
    254,   35.7751579,   57.1080017,  -80.8167038
    255,   25.1468353,   57.1080017,  -84.7280197
    256,   14.1055984,   57.1080017,  -87.2481155
    257,   2.83275056,   57.1080017,  -88.3355942
    258,  -8.48661137,   57.1080017,  -87.9726028
    259,  -19.6666222,   57.1080017,  -86.1651001
    260,  -30.5237083,   57.1080017,  -82.9427795
    261,  -40.8795967,   57.1080017,  -78.3585358
    262,  -50.5642433,   57.1080017,  -72.4876404
    263,  -59.4186249,   57.1080017,   -65.426506
    264,  -67.2973557,   57.1080017,  -57.2910728
    265,  -74.0710678,   57.1080017,    -48.21492
    266,  -79.6285324,   57.1080017,  -38.3470802
    267,  -83.8784943,   57.1080017,  -27.8495789
    268,  -86.7511826,   57.1080017,  -16.8947906
    269,  -88.1994095,   57.1080017,  -5.66259003
    270,  -88.1994095,   57.1080017,   5.66259003
    271,  -86.7511826,   57.1080017,   16.8947906
    272,  -83.8784943,   57.1080017,   27.8495789
    273,  -79.6285324,   57.1080017,   38.3470802
    274,  -74.0710678,   57.1080017,     48.21492
    275,  -67.2973557,   57.1080017,   57.2910728
    276,  -59.4186249,   57.1080017,    65.426506
    277,  -50.5642433,   57.1080017,   72.4876404
    278,  -40.8795967,   57.1080017,   78.3585358
    279,  -30.5237083,   57.1080017,   82.9427795
    280,  -19.6666222,   57.1080017,   86.1651001
    281,  -8.48661137,   57.1080017,   87.9726028
    282,   2.83275056,   57.1080017,   88.3355942
    283,   14.1055984,   57.1080017,   87.2481155
    284,   25.1468353,   57.1080017,   84.7280197
    285,   35.7751579,   57.1080017,   80.8167038
    286,   45.8160553,   57.1080017,   75.5783691
    287,   55.1046524,   57.1080017,   69.0990448
    288,   63.4884338,   57.1080017,   61.4851189
    289,   70.8297348,   57.1080017,   52.8616066
    290,   77.0080185,   57.1080017,   43.3701096
    291,   81.9218292,   57.1080017,   33.1664734
    292,   85.4904861,   57.1080017,   22.4182453
    293,   87.6553955,   57.1080017,   11.3019114
    294,   88.3809967,   57.1080017,           0.
    295,   87.6553955,   68.5296021,  -11.3019114
    296,   85.4904861,   68.5296021,  -22.4182453
    297,   81.9218292,   68.5296021,  -33.1664734
    298,   77.0080185,   68.5296021,  -43.3701096
    299,   70.8297348,   68.5296021,  -52.8616066
    300,   63.4884338,   68.5296021,  -61.4851189
    301,   55.1046524,   68.5296021,  -69.0990448
    302,   45.8160553,   68.5296021,  -75.5783691
    303,   35.7751579,   68.5296021,  -80.8167038
    304,   25.1468353,   68.5296021,  -84.7280197
    305,   14.1055984,   68.5296021,  -87.2481155
    306,   2.83275056,   68.5296021,  -88.3355942
    307,  -8.48661137,   68.5296021,  -87.9726028
    308,  -19.6666222,   68.5296021,  -86.1651001
    309,  -30.5237083,   68.5296021,  -82.9427795
    310,  -40.8795967,   68.5296021,  -78.3585358
    311,  -50.5642433,   68.5296021,  -72.4876404
    312,  -59.4186249,   68.5296021,   -65.426506
    313,  -67.2973557,   68.5296021,  -57.2910728
    314,  -74.0710678,   68.5296021,    -48.21492
    315,  -79.6285324,   68.5296021,  -38.3470802
    316,  -83.8784943,   68.5296021,  -27.8495789
    317,  -86.7511826,   68.5296021,  -16.8947906
    318,  -88.1994095,   68.5296021,  -5.66259003
    319,  -88.1994095,   68.5296021,   5.66259003
    320,  -86.7511826,   68.5296021,   16.8947906
    321,  -83.8784943,   68.5296021,   27.8495789
    322,  -79.6285324,   68.5296021,   38.3470802
    323,  -74.0710678,   68.5296021,     48.21492
    324,  -67.2973557,   68.5296021,   57.2910728
    325,  -59.4186249,   68.5296021,    65.426506
    326,  -50.5642433,   68.5296021,   72.4876404
    327,  -40.8795967,   68.5296021,   78.3585358
    328,  -30.5237083,   68.5296021,   82.9427795
    329,  -19.6666222,   68.5296021,   86.1651001
    330,  -8.48661137,   68.5296021,   87.9726028
    331,   2.83275056,   68.5296021,   88.3355942
    332,   14.1055984,   68.5296021,   87.2481155
    333,   25.1468353,   68.5296021,   84.7280197
    334,   35.7751579,   68.5296021,   80.8167038
    335,   45.8160553,   68.5296021,   75.5783691
    336,   55.1046524,   68.5296021,   69.0990448
    337,   63.4884338,   68.5296021,   61.4851189
    338,   70.8297348,   68.5296021,   52.8616066
    339,   77.0080185,   68.5296021,   43.3701096
    340,   81.9218292,   68.5296021,   33.1664734
    341,   85.4904861,   68.5296021,   22.4182453
    342,   87.6553955,   68.5296021,   11.3019114
    343,   88.3809967,   68.5296021,           0.
    344,   87.6553955,   79.9512024,  -11.3019114
    345,   85.4904861,   79.9512024,  -22.4182453
    346,   81.9218292,   79.9512024,  -33.1664734
    347,   77.0080185,   79.9512024,  -43.3701096
    348,   70.8297348,   79.9512024,  -52.8616066
    349,   63.4884338,   79.9512024,  -61.4851189
    350,   55.1046524,   79.9512024,  -69.0990448
    351,   45.8160553,   79.9512024,  -75.5783691
    352,   35.7751579,   79.9512024,  -80.8167038
    353,   25.1468353,   79.9512024,  -84.7280197
    354,   14.1055984,   79.9512024,  -87.2481155
    355,   2.83275056,   79.9512024,  -88.3355942
    356,  -8.48661137,   79.9512024,  -87.9726028
    357,  -19.6666222,   79.9512024,  -86.1651001
    358,  -30.5237083,   79.9512024,  -82.9427795
    359,  -40.8795967,   79.9512024,  -78.3585358
    360,  -50.5642433,   79.9512024,  -72.4876404
    361,  -59.4186249,   79.9512024,   -65.426506
    362,  -67.2973557,   79.9512024,  -57.2910728
    363,  -74.0710678,   79.9512024,    -48.21492
    364,  -79.6285324,   79.9512024,  -38.3470802
    365,  -83.8784943,   79.9512024,  -27.8495789
    366,  -86.7511826,   79.9512024,  -16.8947906
    367,  -88.1994095,   79.9512024,  -5.66259003
    368,  -88.1994095,   79.9512024,   5.66259003
    369,  -86.7511826,   79.9512024,   16.8947906
    370,  -83.8784943,   79.9512024,   27.8495789
    371,  -79.6285324,   79.9512024,   38.3470802
    372,  -74.0710678,   79.9512024,     48.21492
    373,  -67.2973557,   79.9512024,   57.2910728
    374,  -59.4186249,   79.9512024,    65.426506
    375,  -50.5642433,   79.9512024,   72.4876404
    376,  -40.8795967,   79.9512024,   78.3585358
    377,  -30.5237083,   79.9512024,   82.9427795
    378,  -19.6666222,   79.9512024,   86.1651001
    379,  -8.48661137,   79.9512024,   87.9726028
    380,   2.83275056,   79.9512024,   88.3355942
    381,   14.1055984,   79.9512024,   87.2481155
    382,   25.1468353,   79.9512024,   84.7280197
    383,   35.7751579,   79.9512024,   80.8167038
    384,   45.8160553,   79.9512024,   75.5783691
    385,   55.1046524,   79.9512024,   69.0990448
    386,   63.4884338,   79.9512024,   61.4851189
    387,   70.8297348,   79.9512024,   52.8616066
    388,   77.0080185,   79.9512024,   43.3701096
    389,   81.9218292,   79.9512024,   33.1664734
    390,   85.4904861,   79.9512024,   22.4182453
    391,   87.6553955,   79.9512024,   11.3019114
    392,   88.3809967,   79.9512024,           0.
    393,   87.6553955,   91.3728027,  -11.3019114
    394,   85.4904861,   91.3728027,  -22.4182453
    395,   81.9218292,   91.3728027,  -33.1664734
    396,   77.0080185,   91.3728027,  -43.3701096
    397,   70.8297348,   91.3728027,  -52.8616066
    398,   63.4884338,   91.3728027,  -61.4851189
    399,   55.1046524,   91.3728027,  -69.0990448
    400,   45.8160553,   91.3728027,  -75.5783691
    401,   35.7751579,   91.3728027,  -80.8167038
    402,   25.1468353,   91.3728027,  -84.7280197
    403,   14.1055984,   91.3728027,  -87.2481155
    404,   2.83275056,   91.3728027,  -88.3355942
    405,  -8.48661137,   91.3728027,  -87.9726028
    406,  -19.6666222,   91.3728027,  -86.1651001
    407,  -30.5237083,   91.3728027,  -82.9427795
    408,  -40.8795967,   91.3728027,  -78.3585358
    409,  -50.5642433,   91.3728027,  -72.4876404
    410,  -59.4186249,   91.3728027,   -65.426506
    411,  -67.2973557,   91.3728027,  -57.2910728
    412,  -74.0710678,   91.3728027,    -48.21492
    413,  -79.6285324,   91.3728027,  -38.3470802
    414,  -83.8784943,   91.3728027,  -27.8495789
    415,  -86.7511826,   91.3728027,  -16.8947906
    416,  -88.1994095,   91.3728027,  -5.66259003
    417,  -88.1994095,   91.3728027,   5.66259003
    418,  -86.7511826,   91.3728027,   16.8947906
    419,  -83.8784943,   91.3728027,   27.8495789
    420,  -79.6285324,   91.3728027,   38.3470802
    421,  -74.0710678,   91.3728027,     48.21492
    422,  -67.2973557,   91.3728027,   57.2910728
    423,  -59.4186249,   91.3728027,    65.426506
    424,  -50.5642433,   91.3728027,   72.4876404
    425,  -40.8795967,   91.3728027,   78.3585358
    426,  -30.5237083,   91.3728027,   82.9427795
    427,  -19.6666222,   91.3728027,   86.1651001
    428,  -8.48661137,   91.3728027,   87.9726028
    429,   2.83275056,   91.3728027,   88.3355942
    430,   14.1055984,   91.3728027,   87.2481155
    431,   25.1468353,   91.3728027,   84.7280197
    432,   35.7751579,   91.3728027,   80.8167038
    433,   45.8160553,   91.3728027,   75.5783691
    434,   55.1046524,   91.3728027,   69.0990448
    435,   63.4884338,   91.3728027,   61.4851189
    436,   70.8297348,   91.3728027,   52.8616066
    437,   77.0080185,   91.3728027,   43.3701096
    438,   81.9218292,   91.3728027,   33.1664734
    439,   85.4904861,   91.3728027,   22.4182453
    440,   87.6553955,   91.3728027,   11.3019114
    441,   88.3809967,   91.3728027,           0.
    442,   87.6553955,   102.794403,  -11.3019114
    443,   85.4904861,   102.794403,  -22.4182453
    444,   81.9218292,   102.794403,  -33.1664734
    445,   77.0080185,   102.794403,  -43.3701096
    446,   70.8297348,   102.794403,  -52.8616066
    447,   63.4884338,   102.794403,  -61.4851189
    448,   55.1046524,   102.794403,  -69.0990448
    449,   45.8160553,   102.794403,  -75.5783691
    450,   35.7751579,   102.794403,  -80.8167038
    451,   25.1468353,   102.794403,  -84.7280197
    452,   14.1055984,   102.794403,  -87.2481155
    453,   2.83275056,   102.794403,  -88.3355942
    454,  -8.48661137,   102.794403,  -87.9726028
    455,  -19.6666222,   102.794403,  -86.1651001
    456,  -30.5237083,   102.794403,  -82.9427795
    457,  -40.8795967,   102.794403,  -78.3585358
    458,  -50.5642433,   102.794403,  -72.4876404
    459,  -59.4186249,   102.794403,   -65.426506
    460,  -67.2973557,   102.794403,  -57.2910728
    461,  -74.0710678,   102.794403,    -48.21492
    462,  -79.6285324,   102.794403,  -38.3470802
    463,  -83.8784943,   102.794403,  -27.8495789
    464,  -86.7511826,   102.794403,  -16.8947906
    465,  -88.1994095,   102.794403,  -5.66259003
    466,  -88.1994095,   102.794403,   5.66259003
    467,  -86.7511826,   102.794403,   16.8947906
    468,  -83.8784943,   102.794403,   27.8495789
    469,  -79.6285324,   102.794403,   38.3470802
    470,  -74.0710678,   102.794403,     48.21492
    471,  -67.2973557,   102.794403,   57.2910728
    472,  -59.4186249,   102.794403,    65.426506
    473,  -50.5642433,   102.794403,   72.4876404
    474,  -40.8795967,   102.794403,   78.3585358
    475,  -30.5237083,   102.794403,   82.9427795
    476,  -19.6666222,   102.794403,   86.1651001
    477,  -8.48661137,   102.794403,   87.9726028
    478,   2.83275056,   102.794403,   88.3355942
    479,   14.1055984,   102.794403,   87.2481155
    480,   25.1468353,   102.794403,   84.7280197
    481,   35.7751579,   102.794403,   80.8167038
    482,   45.8160553,   102.794403,   75.5783691
    483,   55.1046524,   102.794403,   69.0990448
    484,   63.4884338,   102.794403,   61.4851189
    485,   70.8297348,   102.794403,   52.8616066
    486,   77.0080185,   102.794403,   43.3701096
    487,   81.9218292,   102.794403,   33.1664734
    488,   85.4904861,   102.794403,   22.4182453
    489,   87.6553955,   102.794403,   11.3019114
    490,   88.3809967,   102.794403,           0.
    491,   87.6553955,   114.216003,  -11.3019114
    492,   85.4904861,   114.216003,  -22.4182453
    493,   81.9218292,   114.216003,  -33.1664734
    494,   77.0080185,   114.216003,  -43.3701096
    495,   70.8297348,   114.216003,  -52.8616066
    496,   63.4884338,   114.216003,  -61.4851189
    497,   55.1046524,   114.216003,  -69.0990448
    498,   45.8160553,   114.216003,  -75.5783691
    499,   35.7751579,   114.216003,  -80.8167038
    500,   25.1468353,   114.216003,  -84.7280197
    501,   14.1055984,   114.216003,  -87.2481155
    502,   2.83275056,   114.216003,  -88.3355942
    503,  -8.48661137,   114.216003,  -87.9726028
    504,  -19.6666222,   114.216003,  -86.1651001
    505,  -30.5237083,   114.216003,  -82.9427795
    506,  -40.8795967,   114.216003,  -78.3585358
    507,  -50.5642433,   114.216003,  -72.4876404
    508,  -59.4186249,   114.216003,   -65.426506
    509,  -67.2973557,   114.216003,  -57.2910728
    510,  -74.0710678,   114.216003,    -48.21492
    511,  -79.6285324,   114.216003,  -38.3470802
    512,  -83.8784943,   114.216003,  -27.8495789
    513,  -86.7511826,   114.216003,  -16.8947906
    514,  -88.1994095,   114.216003,  -5.66259003
    515,  -88.1994095,   114.216003,   5.66259003
    516,  -86.7511826,   114.216003,   16.8947906
    517,  -83.8784943,   114.216003,   27.8495789
    518,  -79.6285324,   114.216003,   38.3470802
    519,  -74.0710678,   114.216003,     48.21492
    520,  -67.2973557,   114.216003,   57.2910728
    521,  -59.4186249,   114.216003,    65.426506
    522,  -50.5642433,   114.216003,   72.4876404
    523,  -40.8795967,   114.216003,   78.3585358
    524,  -30.5237083,   114.216003,   82.9427795
    525,  -19.6666222,   114.216003,   86.1651001
    526,  -8.48661137,   114.216003,   87.9726028
    527,   2.83275056,   114.216003,   88.3355942
    528,   14.1055984,   114.216003,   87.2481155
    529,   25.1468353,   114.216003,   84.7280197
    530,   35.7751579,   114.216003,   80.8167038
    531,   45.8160553,   114.216003,   75.5783691
    532,   55.1046524,   114.216003,   69.0990448
    533,   63.4884338,   114.216003,   61.4851189
    534,   70.8297348,   114.216003,   52.8616066
    535,   77.0080185,   114.216003,   43.3701096
    536,   81.9218292,   114.216003,   33.1664734
    537,   85.4904861,   114.216003,   22.4182453
    538,   87.6553955,   114.216003,   11.3019114
    539,   88.3809967,   114.216003,           0.
    540,   87.6553955,   125.637604,  -11.3019114
    541,   85.4904861,   125.637604,  -22.4182453
    542,   81.9218292,   125.637604,  -33.1664734
    543,   77.0080185,   125.637604,  -43.3701096
    544,   70.8297348,   125.637604,  -52.8616066
    545,   63.4884338,   125.637604,  -61.4851189
    546,   55.1046524,   125.637604,  -69.0990448
    547,   45.8160553,   125.637604,  -75.5783691
    548,   35.7751579,   125.637604,  -80.8167038
    549,   25.1468353,   125.637604,  -84.7280197
    550,   14.1055984,   125.637604,  -87.2481155
    551,   2.83275056,   125.637604,  -88.3355942
    552,  -8.48661137,   125.637604,  -87.9726028
    553,  -19.6666222,   125.637604,  -86.1651001
    554,  -30.5237083,   125.637604,  -82.9427795
    555,  -40.8795967,   125.637604,  -78.3585358
    556,  -50.5642433,   125.637604,  -72.4876404
    557,  -59.4186249,   125.637604,   -65.426506
    558,  -67.2973557,   125.637604,  -57.2910728
    559,  -74.0710678,   125.637604,    -48.21492
    560,  -79.6285324,   125.637604,  -38.3470802
    561,  -83.8784943,   125.637604,  -27.8495789
    562,  -86.7511826,   125.637604,  -16.8947906
    563,  -88.1994095,   125.637604,  -5.66259003
    564,  -88.1994095,   125.637604,   5.66259003
    565,  -86.7511826,   125.637604,   16.8947906
    566,  -83.8784943,   125.637604,   27.8495789
    567,  -79.6285324,   125.637604,   38.3470802
    568,  -74.0710678,   125.637604,     48.21492
    569,  -67.2973557,   125.637604,   57.2910728
    570,  -59.4186249,   125.637604,    65.426506
    571,  -50.5642433,   125.637604,   72.4876404
    572,  -40.8795967,   125.637604,   78.3585358
    573,  -30.5237083,   125.637604,   82.9427795
    574,  -19.6666222,   125.637604,   86.1651001
    575,  -8.48661137,   125.637604,   87.9726028
    576,   2.83275056,   125.637604,   88.3355942
    577,   14.1055984,   125.637604,   87.2481155
    578,   25.1468353,   125.637604,   84.7280197
    579,   35.7751579,   125.637604,   80.8167038
    580,   45.8160553,   125.637604,   75.5783691
    581,   55.1046524,   125.637604,   69.0990448
    582,   63.4884338,   125.637604,   61.4851189
    583,   70.8297348,   125.637604,   52.8616066
    584,   77.0080185,   125.637604,   43.3701096
    585,   81.9218292,   125.637604,   33.1664734
    586,   85.4904861,   125.637604,   22.4182453
    587,   87.6553955,   125.637604,   11.3019114
    588,   88.3809967,   125.637604,           0.
    589,   87.6553955,   137.059204,  -11.3019114
    590,   85.4904861,   137.059204,  -22.4182453
    591,   81.9218292,   137.059204,  -33.1664734
    592,   77.0080185,   137.059204,  -43.3701096
    593,   70.8297348,   137.059204,  -52.8616066
    594,   63.4884338,   137.059204,  -61.4851189
    595,   55.1046524,   137.059204,  -69.0990448
    596,   45.8160553,   137.059204,  -75.5783691
    597,   35.7751579,   137.059204,  -80.8167038
    598,   25.1468353,   137.059204,  -84.7280197
    599,   14.1055984,   137.059204,  -87.2481155
    600,   2.83275056,   137.059204,  -88.3355942
    601,  -8.48661137,   137.059204,  -87.9726028
    602,  -19.6666222,   137.059204,  -86.1651001
    603,  -30.5237083,   137.059204,  -82.9427795
    604,  -40.8795967,   137.059204,  -78.3585358
    605,  -50.5642433,   137.059204,  -72.4876404
    606,  -59.4186249,   137.059204,   -65.426506
    607,  -67.2973557,   137.059204,  -57.2910728
    608,  -74.0710678,   137.059204,    -48.21492
    609,  -79.6285324,   137.059204,  -38.3470802
    610,  -83.8784943,   137.059204,  -27.8495789
    611,  -86.7511826,   137.059204,  -16.8947906
    612,  -88.1994095,   137.059204,  -5.66259003
    613,  -88.1994095,   137.059204,   5.66259003
    614,  -86.7511826,   137.059204,   16.8947906
    615,  -83.8784943,   137.059204,   27.8495789
    616,  -79.6285324,   137.059204,   38.3470802
    617,  -74.0710678,   137.059204,     48.21492
    618,  -67.2973557,   137.059204,   57.2910728
    619,  -59.4186249,   137.059204,    65.426506
    620,  -50.5642433,   137.059204,   72.4876404
    621,  -40.8795967,   137.059204,   78.3585358
    622,  -30.5237083,   137.059204,   82.9427795
    623,  -19.6666222,   137.059204,   86.1651001
    624,  -8.48661137,   137.059204,   87.9726028
    625,   2.83275056,   137.059204,   88.3355942
    626,   14.1055984,   137.059204,   87.2481155
    627,   25.1468353,   137.059204,   84.7280197
    628,   35.7751579,   137.059204,   80.8167038
    629,   45.8160553,   137.059204,   75.5783691
    630,   55.1046524,   137.059204,   69.0990448
    631,   63.4884338,   137.059204,   61.4851189
    632,   70.8297348,   137.059204,   52.8616066
    633,   77.0080185,   137.059204,   43.3701096
    634,   81.9218292,   137.059204,   33.1664734
    635,   85.4904861,   137.059204,   22.4182453
    636,   87.6553955,   137.059204,   11.3019114
    637,   88.3809967,   137.059204,           0.
    638,   87.6553955,   148.480804,  -11.3019114
    639,   85.4904861,   148.480804,  -22.4182453
    640,   81.9218292,   148.480804,  -33.1664734
    641,   77.0080185,   148.480804,  -43.3701096
    642,   70.8297348,   148.480804,  -52.8616066
    643,   63.4884338,   148.480804,  -61.4851189
    644,   55.1046524,   148.480804,  -69.0990448
    645,   45.8160553,   148.480804,  -75.5783691
    646,   35.7751579,   148.480804,  -80.8167038
    647,   25.1468353,   148.480804,  -84.7280197
    648,   14.1055984,   148.480804,  -87.2481155
    649,   2.83275056,   148.480804,  -88.3355942
    650,  -8.48661137,   148.480804,  -87.9726028
    651,  -19.6666222,   148.480804,  -86.1651001
    652,  -30.5237083,   148.480804,  -82.9427795
    653,  -40.8795967,   148.480804,  -78.3585358
    654,  -50.5642433,   148.480804,  -72.4876404
    655,  -59.4186249,   148.480804,   -65.426506
    656,  -67.2973557,   148.480804,  -57.2910728
    657,  -74.0710678,   148.480804,    -48.21492
    658,  -79.6285324,   148.480804,  -38.3470802
    659,  -83.8784943,   148.480804,  -27.8495789
    660,  -86.7511826,   148.480804,  -16.8947906
    661,  -88.1994095,   148.480804,  -5.66259003
    662,  -88.1994095,   148.480804,   5.66259003
    663,  -86.7511826,   148.480804,   16.8947906
    664,  -83.8784943,   148.480804,   27.8495789
    665,  -79.6285324,   148.480804,   38.3470802
    666,  -74.0710678,   148.480804,     48.21492
    667,  -67.2973557,   148.480804,   57.2910728
    668,  -59.4186249,   148.480804,    65.426506
    669,  -50.5642433,   148.480804,   72.4876404
    670,  -40.8795967,   148.480804,   78.3585358
    671,  -30.5237083,   148.480804,   82.9427795
    672,  -19.6666222,   148.480804,   86.1651001
    673,  -8.48661137,   148.480804,   87.9726028
    674,   2.83275056,   148.480804,   88.3355942
    675,   14.1055984,   148.480804,   87.2481155
    676,   25.1468353,   148.480804,   84.7280197
    677,   35.7751579,   148.480804,   80.8167038
    678,   45.8160553,   148.480804,   75.5783691
    679,   55.1046524,   148.480804,   69.0990448
    680,   63.4884338,   148.480804,   61.4851189
    681,   70.8297348,   148.480804,   52.8616066
    682,   77.0080185,   148.480804,   43.3701096
    683,   81.9218292,   148.480804,   33.1664734
    684,   85.4904861,   148.480804,   22.4182453
    685,   87.6553955,   148.480804,   11.3019114
    686,   88.3809967,   148.480804,           0.
    687,   87.6553955,   159.902405,  -11.3019114
    688,   85.4904861,   159.902405,  -22.4182453
    689,   81.9218292,   159.902405,  -33.1664734
    690,   77.0080185,   159.902405,  -43.3701096
    691,   70.8297348,   159.902405,  -52.8616066
    692,   63.4884338,   159.902405,  -61.4851189
    693,   55.1046524,   159.902405,  -69.0990448
    694,   45.8160553,   159.902405,  -75.5783691
    695,   35.7751579,   159.902405,  -80.8167038
    696,   25.1468353,   159.902405,  -84.7280197
    697,   14.1055984,   159.902405,  -87.2481155
    698,   2.83275056,   159.902405,  -88.3355942
    699,  -8.48661137,   159.902405,  -87.9726028
    700,  -19.6666222,   159.902405,  -86.1651001
    701,  -30.5237083,   159.902405,  -82.9427795
    702,  -40.8795967,   159.902405,  -78.3585358
    703,  -50.5642433,   159.902405,  -72.4876404
    704,  -59.4186249,   159.902405,   -65.426506
    705,  -67.2973557,   159.902405,  -57.2910728
    706,  -74.0710678,   159.902405,    -48.21492
    707,  -79.6285324,   159.902405,  -38.3470802
    708,  -83.8784943,   159.902405,  -27.8495789
    709,  -86.7511826,   159.902405,  -16.8947906
    710,  -88.1994095,   159.902405,  -5.66259003
    711,  -88.1994095,   159.902405,   5.66259003
    712,  -86.7511826,   159.902405,   16.8947906
    713,  -83.8784943,   159.902405,   27.8495789
    714,  -79.6285324,   159.902405,   38.3470802
    715,  -74.0710678,   159.902405,     48.21492
    716,  -67.2973557,   159.902405,   57.2910728
    717,  -59.4186249,   159.902405,    65.426506
    718,  -50.5642433,   159.902405,   72.4876404
    719,  -40.8795967,   159.902405,   78.3585358
    720,  -30.5237083,   159.902405,   82.9427795
    721,  -19.6666222,   159.902405,   86.1651001
    722,  -8.48661137,   159.902405,   87.9726028
    723,   2.83275056,   159.902405,   88.3355942
    724,   14.1055984,   159.902405,   87.2481155
    725,   25.1468353,   159.902405,   84.7280197
    726,   35.7751579,   159.902405,   80.8167038
    727,   45.8160553,   159.902405,   75.5783691
    728,   55.1046524,   159.902405,   69.0990448
    729,   63.4884338,   159.902405,   61.4851189
    730,   70.8297348,   159.902405,   52.8616066
    731,   77.0080185,   159.902405,   43.3701096
    732,   81.9218292,   159.902405,   33.1664734
    733,   85.4904861,   159.902405,   22.4182453
    734,   87.6553955,   159.902405,   11.3019114
    735,   88.3809967,   159.902405,           0.
    736,   87.6553955,   171.324005,  -11.3019114
    737,   85.4904861,   171.324005,  -22.4182453
    738,   81.9218292,   171.324005,  -33.1664734
    739,   77.0080185,   171.324005,  -43.3701096
    740,   70.8297348,   171.324005,  -52.8616066
    741,   63.4884338,   171.324005,  -61.4851189
    742,   55.1046524,   171.324005,  -69.0990448
    743,   45.8160553,   171.324005,  -75.5783691
    744,   35.7751579,   171.324005,  -80.8167038
    745,   25.1468353,   171.324005,  -84.7280197
    746,   14.1055984,   171.324005,  -87.2481155
    747,   2.83275056,   171.324005,  -88.3355942
    748,  -8.48661137,   171.324005,  -87.9726028
    749,  -19.6666222,   171.324005,  -86.1651001
    750,  -30.5237083,   171.324005,  -82.9427795
    751,  -40.8795967,   171.324005,  -78.3585358
    752,  -50.5642433,   171.324005,  -72.4876404
    753,  -59.4186249,   171.324005,   -65.426506
    754,  -67.2973557,   171.324005,  -57.2910728
    755,  -74.0710678,   171.324005,    -48.21492
    756,  -79.6285324,   171.324005,  -38.3470802
    757,  -83.8784943,   171.324005,  -27.8495789
    758,  -86.7511826,   171.324005,  -16.8947906
    759,  -88.1994095,   171.324005,  -5.66259003
    760,  -88.1994095,   171.324005,   5.66259003
    761,  -86.7511826,   171.324005,   16.8947906
    762,  -83.8784943,   171.324005,   27.8495789
    763,  -79.6285324,   171.324005,   38.3470802
    764,  -74.0710678,   171.324005,     48.21492
    765,  -67.2973557,   171.324005,   57.2910728
    766,  -59.4186249,   171.324005,    65.426506
    767,  -50.5642433,   171.324005,   72.4876404
    768,  -40.8795967,   171.324005,   78.3585358
    769,  -30.5237083,   171.324005,   82.9427795
    770,  -19.6666222,   171.324005,   86.1651001
    771,  -8.48661137,   171.324005,   87.9726028
    772,   2.83275056,   171.324005,   88.3355942
    773,   14.1055984,   171.324005,   87.2481155
    774,   25.1468353,   171.324005,   84.7280197
    775,   35.7751579,   171.324005,   80.8167038
    776,   45.8160553,   171.324005,   75.5783691
    777,   55.1046524,   171.324005,   69.0990448
    778,   63.4884338,   171.324005,   61.4851189
    779,   70.8297348,   171.324005,   52.8616066
    780,   77.0080185,   171.324005,   43.3701096
    781,   81.9218292,   171.324005,   33.1664734
    782,   85.4904861,   171.324005,   22.4182453
    783,   87.6553955,   171.324005,   11.3019114
    784,   88.3809967,   171.324005,           0.
    785,   87.6553955,   182.745605,  -11.3019114
    786,   85.4904861,   182.745605,  -22.4182453
    787,   81.9218292,   182.745605,  -33.1664734
    788,   77.0080185,   182.745605,  -43.3701096
    789,   70.8297348,   182.745605,  -52.8616066
    790,   63.4884338,   182.745605,  -61.4851189
    791,   55.1046524,   182.745605,  -69.0990448
    792,   45.8160553,   182.745605,  -75.5783691
    793,   35.7751579,   182.745605,  -80.8167038
    794,   25.1468353,   182.745605,  -84.7280197
    795,   14.1055984,   182.745605,  -87.2481155
    796,   2.83275056,   182.745605,  -88.3355942
    797,  -8.48661137,   182.745605,  -87.9726028
    798,  -19.6666222,   182.745605,  -86.1651001
    799,  -30.5237083,   182.745605,  -82.9427795
    800,  -40.8795967,   182.745605,  -78.3585358
    801,  -50.5642433,   182.745605,  -72.4876404
    802,  -59.4186249,   182.745605,   -65.426506
    803,  -67.2973557,   182.745605,  -57.2910728
    804,  -74.0710678,   182.745605,    -48.21492
    805,  -79.6285324,   182.745605,  -38.3470802
    806,  -83.8784943,   182.745605,  -27.8495789
    807,  -86.7511826,   182.745605,  -16.8947906
    808,  -88.1994095,   182.745605,  -5.66259003
    809,  -88.1994095,   182.745605,   5.66259003
    810,  -86.7511826,   182.745605,   16.8947906
    811,  -83.8784943,   182.745605,   27.8495789
    812,  -79.6285324,   182.745605,   38.3470802
    813,  -74.0710678,   182.745605,     48.21492
    814,  -67.2973557,   182.745605,   57.2910728
    815,  -59.4186249,   182.745605,    65.426506
    816,  -50.5642433,   182.745605,   72.4876404
    817,  -40.8795967,   182.745605,   78.3585358
    818,  -30.5237083,   182.745605,   82.9427795
    819,  -19.6666222,   182.745605,   86.1651001
    820,  -8.48661137,   182.745605,   87.9726028
    821,   2.83275056,   182.745605,   88.3355942
    822,   14.1055984,   182.745605,   87.2481155
    823,   25.1468353,   182.745605,   84.7280197
    824,   35.7751579,   182.745605,   80.8167038
    825,   45.8160553,   182.745605,   75.5783691
    826,   55.1046524,   182.745605,   69.0990448
    827,   63.4884338,   182.745605,   61.4851189
    828,   70.8297348,   182.745605,   52.8616066
    829,   77.0080185,   182.745605,   43.3701096
    830,   81.9218292,   182.745605,   33.1664734
    831,   85.4904861,   182.745605,   22.4182453
    832,   87.6553955,   182.745605,   11.3019114
    833,   88.3809967,   182.745605,           0.
    834,   87.6553955,   194.167206,  -11.3019114
    835,   85.4904861,   194.167206,  -22.4182453
    836,   81.9218292,   194.167206,  -33.1664734
    837,   77.0080185,   194.167206,  -43.3701096
    838,   70.8297348,   194.167206,  -52.8616066
    839,   63.4884338,   194.167206,  -61.4851189
    840,   55.1046524,   194.167206,  -69.0990448
    841,   45.8160553,   194.167206,  -75.5783691
    842,   35.7751579,   194.167206,  -80.8167038
    843,   25.1468353,   194.167206,  -84.7280197
    844,   14.1055984,   194.167206,  -87.2481155
    845,   2.83275056,   194.167206,  -88.3355942
    846,  -8.48661137,   194.167206,  -87.9726028
    847,  -19.6666222,   194.167206,  -86.1651001
    848,  -30.5237083,   194.167206,  -82.9427795
    849,  -40.8795967,   194.167206,  -78.3585358
    850,  -50.5642433,   194.167206,  -72.4876404
    851,  -59.4186249,   194.167206,   -65.426506
    852,  -67.2973557,   194.167206,  -57.2910728
    853,  -74.0710678,   194.167206,    -48.21492
    854,  -79.6285324,   194.167206,  -38.3470802
    855,  -83.8784943,   194.167206,  -27.8495789
    856,  -86.7511826,   194.167206,  -16.8947906
    857,  -88.1994095,   194.167206,  -5.66259003
    858,  -88.1994095,   194.167206,   5.66259003
    859,  -86.7511826,   194.167206,   16.8947906
    860,  -83.8784943,   194.167206,   27.8495789
    861,  -79.6285324,   194.167206,   38.3470802
    862,  -74.0710678,   194.167206,     48.21492
    863,  -67.2973557,   194.167206,   57.2910728
    864,  -59.4186249,   194.167206,    65.426506
    865,  -50.5642433,   194.167206,   72.4876404
    866,  -40.8795967,   194.167206,   78.3585358
    867,  -30.5237083,   194.167206,   82.9427795
    868,  -19.6666222,   194.167206,   86.1651001
    869,  -8.48661137,   194.167206,   87.9726028
    870,   2.83275056,   194.167206,   88.3355942
    871,   14.1055984,   194.167206,   87.2481155
    872,   25.1468353,   194.167206,   84.7280197
    873,   35.7751579,   194.167206,   80.8167038
    874,   45.8160553,   194.167206,   75.5783691
    875,   55.1046524,   194.167206,   69.0990448
    876,   63.4884338,   194.167206,   61.4851189
    877,   70.8297348,   194.167206,   52.8616066
    878,   77.0080185,   194.167206,   43.3701096
    879,   81.9218292,   194.167206,   33.1664734
    880,   85.4904861,   194.167206,   22.4182453
    881,   87.6553955,   194.167206,   11.3019114
    882,   88.3809967,   194.167206,           0.
    883,   87.6553955,   205.588806,  -11.3019114
    884,   85.4904861,   205.588806,  -22.4182453
    885,   81.9218292,   205.588806,  -33.1664734
    886,   77.0080185,   205.588806,  -43.3701096
    887,   70.8297348,   205.588806,  -52.8616066
    888,   63.4884338,   205.588806,  -61.4851189
    889,   55.1046524,   205.588806,  -69.0990448
    890,   45.8160553,   205.588806,  -75.5783691
    891,   35.7751579,   205.588806,  -80.8167038
    892,   25.1468353,   205.588806,  -84.7280197
    893,   14.1055984,   205.588806,  -87.2481155
    894,   2.83275056,   205.588806,  -88.3355942
    895,  -8.48661137,   205.588806,  -87.9726028
    896,  -19.6666222,   205.588806,  -86.1651001
    897,  -30.5237083,   205.588806,  -82.9427795
    898,  -40.8795967,   205.588806,  -78.3585358
    899,  -50.5642433,   205.588806,  -72.4876404
    900,  -59.4186249,   205.588806,   -65.426506
    901,  -67.2973557,   205.588806,  -57.2910728
    902,  -74.0710678,   205.588806,    -48.21492
    903,  -79.6285324,   205.588806,  -38.3470802
    904,  -83.8784943,   205.588806,  -27.8495789
    905,  -86.7511826,   205.588806,  -16.8947906
    906,  -88.1994095,   205.588806,  -5.66259003
    907,  -88.1994095,   205.588806,   5.66259003
    908,  -86.7511826,   205.588806,   16.8947906
    909,  -83.8784943,   205.588806,   27.8495789
    910,  -79.6285324,   205.588806,   38.3470802
    911,  -74.0710678,   205.588806,     48.21492
    912,  -67.2973557,   205.588806,   57.2910728
    913,  -59.4186249,   205.588806,    65.426506
    914,  -50.5642433,   205.588806,   72.4876404
    915,  -40.8795967,   205.588806,   78.3585358
    916,  -30.5237083,   205.588806,   82.9427795
    917,  -19.6666222,   205.588806,   86.1651001
    918,  -8.48661137,   205.588806,   87.9726028
    919,   2.83275056,   205.588806,   88.3355942
    920,   14.1055984,   205.588806,   87.2481155
    921,   25.1468353,   205.588806,   84.7280197
    922,   35.7751579,   205.588806,   80.8167038
    923,   45.8160553,   205.588806,   75.5783691
    924,   55.1046524,   205.588806,   69.0990448
    925,   63.4884338,   205.588806,   61.4851189
    926,   70.8297348,   205.588806,   52.8616066
    927,   77.0080185,   205.588806,   43.3701096
    928,   81.9218292,   205.588806,   33.1664734
    929,   85.4904861,   205.588806,   22.4182453
    930,   87.6553955,   205.588806,   11.3019114
    931,   88.3809967,   205.588806,           0.
    932,   87.6553955,   217.010406,  -11.3019114
    933,   85.4904861,   217.010406,  -22.4182453
    934,   81.9218292,   217.010406,  -33.1664734
    935,   77.0080185,   217.010406,  -43.3701096
    936,   70.8297348,   217.010406,  -52.8616066
    937,   63.4884338,   217.010406,  -61.4851189
    938,   55.1046524,   217.010406,  -69.0990448
    939,   45.8160553,   217.010406,  -75.5783691
    940,   35.7751579,   217.010406,  -80.8167038
    941,   25.1468353,   217.010406,  -84.7280197
    942,   14.1055984,   217.010406,  -87.2481155
    943,   2.83275056,   217.010406,  -88.3355942
    944,  -8.48661137,   217.010406,  -87.9726028
    945,  -19.6666222,   217.010406,  -86.1651001
    946,  -30.5237083,   217.010406,  -82.9427795
    947,  -40.8795967,   217.010406,  -78.3585358
    948,  -50.5642433,   217.010406,  -72.4876404
    949,  -59.4186249,   217.010406,   -65.426506
    950,  -67.2973557,   217.010406,  -57.2910728
    951,  -74.0710678,   217.010406,    -48.21492
    952,  -79.6285324,   217.010406,  -38.3470802
    953,  -83.8784943,   217.010406,  -27.8495789
    954,  -86.7511826,   217.010406,  -16.8947906
    955,  -88.1994095,   217.010406,  -5.66259003
    956,  -88.1994095,   217.010406,   5.66259003
    957,  -86.7511826,   217.010406,   16.8947906
    958,  -83.8784943,   217.010406,   27.8495789
    959,  -79.6285324,   217.010406,   38.3470802
    960,  -74.0710678,   217.010406,     48.21492
    961,  -67.2973557,   217.010406,   57.2910728
    962,  -59.4186249,   217.010406,    65.426506
    963,  -50.5642433,   217.010406,   72.4876404
    964,  -40.8795967,   217.010406,   78.3585358
    965,  -30.5237083,   217.010406,   82.9427795
    966,  -19.6666222,   217.010406,   86.1651001
    967,  -8.48661137,   217.010406,   87.9726028
    968,   2.83275056,   217.010406,   88.3355942
    969,   14.1055984,   217.010406,   87.2481155
    970,   25.1468353,   217.010406,   84.7280197
    971,   35.7751579,   217.010406,   80.8167038
    972,   45.8160553,   217.010406,   75.5783691
    973,   55.1046524,   217.010406,   69.0990448
    974,   63.4884338,   217.010406,   61.4851189
    975,   70.8297348,   217.010406,   52.8616066
    976,   77.0080185,   217.010406,   43.3701096
    977,   81.9218292,   217.010406,   33.1664734
    978,   85.4904861,   217.010406,   22.4182453
    979,   87.6553955,   217.010406,   11.3019114
    980,   88.3809967,   217.010406,           0.
    981,   87.6553955,   228.432007,  -11.3019114
    982,   85.4904861,   228.432007,  -22.4182453
    983,   81.9218292,   228.432007,  -33.1664734
    984,   77.0080185,   228.432007,  -43.3701096
    985,   70.8297348,   228.432007,  -52.8616066
    986,   63.4884338,   228.432007,  -61.4851189
    987,   55.1046524,   228.432007,  -69.0990448
    988,   45.8160553,   228.432007,  -75.5783691
    989,   35.7751579,   228.432007,  -80.8167038
    990,   25.1468353,   228.432007,  -84.7280197
    991,   14.1055984,   228.432007,  -87.2481155
    992,   2.83275056,   228.432007,  -88.3355942
    993,  -8.48661137,   228.432007,  -87.9726028
    994,  -19.6666222,   228.432007,  -86.1651001
    995,  -30.5237083,   228.432007,  -82.9427795
    996,  -40.8795967,   228.432007,  -78.3585358
    997,  -50.5642433,   228.432007,  -72.4876404
    998,  -59.4186249,   228.432007,   -65.426506
    999,  -67.2973557,   228.432007,  -57.2910728
   1000,  -74.0710678,   228.432007,    -48.21492
   1001,  -79.6285324,   228.432007,  -38.3470802
   1002,  -83.8784943,   228.432007,  -27.8495789
   1003,  -86.7511826,   228.432007,  -16.8947906
   1004,  -88.1994095,   228.432007,  -5.66259003
   1005,  -88.1994095,   228.432007,   5.66259003
   1006,  -86.7511826,   228.432007,   16.8947906
   1007,  -83.8784943,   228.432007,   27.8495789
   1008,  -79.6285324,   228.432007,   38.3470802
   1009,  -74.0710678,   228.432007,     48.21492
   1010,  -67.2973557,   228.432007,   57.2910728
   1011,  -59.4186249,   228.432007,    65.426506
   1012,  -50.5642433,   228.432007,   72.4876404
   1013,  -40.8795967,   228.432007,   78.3585358
   1014,  -30.5237083,   228.432007,   82.9427795
   1015,  -19.6666222,   228.432007,   86.1651001
   1016,  -8.48661137,   228.432007,   87.9726028
   1017,   2.83275056,   228.432007,   88.3355942
   1018,   14.1055984,   228.432007,   87.2481155
   1019,   25.1468353,   228.432007,   84.7280197
   1020,   35.7751579,   228.432007,   80.8167038
   1021,   45.8160553,   228.432007,   75.5783691
   1022,   55.1046524,   228.432007,   69.0990448
   1023,   63.4884338,   228.432007,   61.4851189
   1024,   70.8297348,   228.432007,   52.8616066
   1025,   77.0080185,   228.432007,   43.3701096
   1026,   81.9218292,   228.432007,   33.1664734
   1027,   85.4904861,   228.432007,   22.4182453
   1028,   87.6553955,   228.432007,   11.3019114
   1029,   88.3809967,   228.432007,           0.
   1030,   87.6553955,   239.853607,  -11.3019114
   1031,   85.4904861,   239.853607,  -22.4182453
   1032,   81.9218292,   239.853607,  -33.1664734
   1033,   77.0080185,   239.853607,  -43.3701096
   1034,   70.8297348,   239.853607,  -52.8616066
   1035,   63.4884338,   239.853607,  -61.4851189
   1036,   55.1046524,   239.853607,  -69.0990448
   1037,   45.8160553,   239.853607,  -75.5783691
   1038,   35.7751579,   239.853607,  -80.8167038
   1039,   25.1468353,   239.853607,  -84.7280197
   1040,   14.1055984,   239.853607,  -87.2481155
   1041,   2.83275056,   239.853607,  -88.3355942
   1042,  -8.48661137,   239.853607,  -87.9726028
   1043,  -19.6666222,   239.853607,  -86.1651001
   1044,  -30.5237083,   239.853607,  -82.9427795
   1045,  -40.8795967,   239.853607,  -78.3585358
   1046,  -50.5642433,   239.853607,  -72.4876404
   1047,  -59.4186249,   239.853607,   -65.426506
   1048,  -67.2973557,   239.853607,  -57.2910728
   1049,  -74.0710678,   239.853607,    -48.21492
   1050,  -79.6285324,   239.853607,  -38.3470802
   1051,  -83.8784943,   239.853607,  -27.8495789
   1052,  -86.7511826,   239.853607,  -16.8947906
   1053,  -88.1994095,   239.853607,  -5.66259003
   1054,  -88.1994095,   239.853607,   5.66259003
   1055,  -86.7511826,   239.853607,   16.8947906
   1056,  -83.8784943,   239.853607,   27.8495789
   1057,  -79.6285324,   239.853607,   38.3470802
   1058,  -74.0710678,   239.853607,     48.21492
   1059,  -67.2973557,   239.853607,   57.2910728
   1060,  -59.4186249,   239.853607,    65.426506
   1061,  -50.5642433,   239.853607,   72.4876404
   1062,  -40.8795967,   239.853607,   78.3585358
   1063,  -30.5237083,   239.853607,   82.9427795
   1064,  -19.6666222,   239.853607,   86.1651001
   1065,  -8.48661137,   239.853607,   87.9726028
   1066,   2.83275056,   239.853607,   88.3355942
   1067,   14.1055984,   239.853607,   87.2481155
   1068,   25.1468353,   239.853607,   84.7280197
   1069,   35.7751579,   239.853607,   80.8167038
   1070,   45.8160553,   239.853607,   75.5783691
   1071,   55.1046524,   239.853607,   69.0990448
   1072,   63.4884338,   239.853607,   61.4851189
   1073,   70.8297348,   239.853607,   52.8616066
   1074,   77.0080185,   239.853607,   43.3701096
   1075,   81.9218292,   239.853607,   33.1664734
   1076,   85.4904861,   239.853607,   22.4182453
   1077,   87.6553955,   239.853607,   11.3019114
   1078,   88.3809967,   239.853607,           0.
   1079,   87.6553955,   251.275208,  -11.3019114
   1080,   85.4904861,   251.275208,  -22.4182453
   1081,   81.9218292,   251.275208,  -33.1664734
   1082,   77.0080185,   251.275208,  -43.3701096
   1083,   70.8297348,   251.275208,  -52.8616066
   1084,   63.4884338,   251.275208,  -61.4851189
   1085,   55.1046524,   251.275208,  -69.0990448
   1086,   45.8160553,   251.275208,  -75.5783691
   1087,   35.7751579,   251.275208,  -80.8167038
   1088,   25.1468353,   251.275208,  -84.7280197
   1089,   14.1055984,   251.275208,  -87.2481155
   1090,   2.83275056,   251.275208,  -88.3355942
   1091,  -8.48661137,   251.275208,  -87.9726028
   1092,  -19.6666222,   251.275208,  -86.1651001
   1093,  -30.5237083,   251.275208,  -82.9427795
   1094,  -40.8795967,   251.275208,  -78.3585358
   1095,  -50.5642433,   251.275208,  -72.4876404
   1096,  -59.4186249,   251.275208,   -65.426506
   1097,  -67.2973557,   251.275208,  -57.2910728
   1098,  -74.0710678,   251.275208,    -48.21492
   1099,  -79.6285324,   251.275208,  -38.3470802
   1100,  -83.8784943,   251.275208,  -27.8495789
   1101,  -86.7511826,   251.275208,  -16.8947906
   1102,  -88.1994095,   251.275208,  -5.66259003
   1103,  -88.1994095,   251.275208,   5.66259003
   1104,  -86.7511826,   251.275208,   16.8947906
   1105,  -83.8784943,   251.275208,   27.8495789
   1106,  -79.6285324,   251.275208,   38.3470802
   1107,  -74.0710678,   251.275208,     48.21492
   1108,  -67.2973557,   251.275208,   57.2910728
   1109,  -59.4186249,   251.275208,    65.426506
   1110,  -50.5642433,   251.275208,   72.4876404
   1111,  -40.8795967,   251.275208,   78.3585358
   1112,  -30.5237083,   251.275208,   82.9427795
   1113,  -19.6666222,   251.275208,   86.1651001
   1114,  -8.48661137,   251.275208,   87.9726028
   1115,   2.83275056,   251.275208,   88.3355942
   1116,   14.1055984,   251.275208,   87.2481155
   1117,   25.1468353,   251.275208,   84.7280197
   1118,   35.7751579,   251.275208,   80.8167038
   1119,   45.8160553,   251.275208,   75.5783691
   1120,   55.1046524,   251.275208,   69.0990448
   1121,   63.4884338,   251.275208,   61.4851189
   1122,   70.8297348,   251.275208,   52.8616066
   1123,   77.0080185,   251.275208,   43.3701096
   1124,   81.9218292,   251.275208,   33.1664734
   1125,   85.4904861,   251.275208,   22.4182453
   1126,   87.6553955,   251.275208,   11.3019114
   1127,   88.3809967,   251.275208,           0.
   1128,   87.6553955,   262.696808,  -11.3019114
   1129,   85.4904861,   262.696808,  -22.4182453
   1130,   81.9218292,   262.696808,  -33.1664734
   1131,   77.0080185,   262.696808,  -43.3701096
   1132,   70.8297348,   262.696808,  -52.8616066
   1133,   63.4884338,   262.696808,  -61.4851189
   1134,   55.1046524,   262.696808,  -69.0990448
   1135,   45.8160553,   262.696808,  -75.5783691
   1136,   35.7751579,   262.696808,  -80.8167038
   1137,   25.1468353,   262.696808,  -84.7280197
   1138,   14.1055984,   262.696808,  -87.2481155
   1139,   2.83275056,   262.696808,  -88.3355942
   1140,  -8.48661137,   262.696808,  -87.9726028
   1141,  -19.6666222,   262.696808,  -86.1651001
   1142,  -30.5237083,   262.696808,  -82.9427795
   1143,  -40.8795967,   262.696808,  -78.3585358
   1144,  -50.5642433,   262.696808,  -72.4876404
   1145,  -59.4186249,   262.696808,   -65.426506
   1146,  -67.2973557,   262.696808,  -57.2910728
   1147,  -74.0710678,   262.696808,    -48.21492
   1148,  -79.6285324,   262.696808,  -38.3470802
   1149,  -83.8784943,   262.696808,  -27.8495789
   1150,  -86.7511826,   262.696808,  -16.8947906
   1151,  -88.1994095,   262.696808,  -5.66259003
   1152,  -88.1994095,   262.696808,   5.66259003
   1153,  -86.7511826,   262.696808,   16.8947906
   1154,  -83.8784943,   262.696808,   27.8495789
   1155,  -79.6285324,   262.696808,   38.3470802
   1156,  -74.0710678,   262.696808,     48.21492
   1157,  -67.2973557,   262.696808,   57.2910728
   1158,  -59.4186249,   262.696808,    65.426506
   1159,  -50.5642433,   262.696808,   72.4876404
   1160,  -40.8795967,   262.696808,   78.3585358
   1161,  -30.5237083,   262.696808,   82.9427795
   1162,  -19.6666222,   262.696808,   86.1651001
   1163,  -8.48661137,   262.696808,   87.9726028
   1164,   2.83275056,   262.696808,   88.3355942
   1165,   14.1055984,   262.696808,   87.2481155
   1166,   25.1468353,   262.696808,   84.7280197
   1167,   35.7751579,   262.696808,   80.8167038
   1168,   45.8160553,   262.696808,   75.5783691
   1169,   55.1046524,   262.696808,   69.0990448
   1170,   63.4884338,   262.696808,   61.4851189
   1171,   70.8297348,   262.696808,   52.8616066
   1172,   77.0080185,   262.696808,   43.3701096
   1173,   81.9218292,   262.696808,   33.1664734
   1174,   85.4904861,   262.696808,   22.4182453
   1175,   87.6553955,   262.696808,   11.3019114
   1176,   88.3809967,   262.696808,           0.
   1177,   87.6553955,   274.118408,  -11.3019114
   1178,   85.4904861,   274.118408,  -22.4182453
   1179,   81.9218292,   274.118408,  -33.1664734
   1180,   77.0080185,   274.118408,  -43.3701096
   1181,   70.8297348,   274.118408,  -52.8616066
   1182,   63.4884338,   274.118408,  -61.4851189
   1183,   55.1046524,   274.118408,  -69.0990448
   1184,   45.8160553,   274.118408,  -75.5783691
   1185,   35.7751579,   274.118408,  -80.8167038
   1186,   25.1468353,   274.118408,  -84.7280197
   1187,   14.1055984,   274.118408,  -87.2481155
   1188,   2.83275056,   274.118408,  -88.3355942
   1189,  -8.48661137,   274.118408,  -87.9726028
   1190,  -19.6666222,   274.118408,  -86.1651001
   1191,  -30.5237083,   274.118408,  -82.9427795
   1192,  -40.8795967,   274.118408,  -78.3585358
   1193,  -50.5642433,   274.118408,  -72.4876404
   1194,  -59.4186249,   274.118408,   -65.426506
   1195,  -67.2973557,   274.118408,  -57.2910728
   1196,  -74.0710678,   274.118408,    -48.21492
   1197,  -79.6285324,   274.118408,  -38.3470802
   1198,  -83.8784943,   274.118408,  -27.8495789
   1199,  -86.7511826,   274.118408,  -16.8947906
   1200,  -88.1994095,   274.118408,  -5.66259003
   1201,  -88.1994095,   274.118408,   5.66259003
   1202,  -86.7511826,   274.118408,   16.8947906
   1203,  -83.8784943,   274.118408,   27.8495789
   1204,  -79.6285324,   274.118408,   38.3470802
   1205,  -74.0710678,   274.118408,     48.21492
   1206,  -67.2973557,   274.118408,   57.2910728
   1207,  -59.4186249,   274.118408,    65.426506
   1208,  -50.5642433,   274.118408,   72.4876404
   1209,  -40.8795967,   274.118408,   78.3585358
   1210,  -30.5237083,   274.118408,   82.9427795
   1211,  -19.6666222,   274.118408,   86.1651001
   1212,  -8.48661137,   274.118408,   87.9726028
   1213,   2.83275056,   274.118408,   88.3355942
   1214,   14.1055984,   274.118408,   87.2481155
   1215,   25.1468353,   274.118408,   84.7280197
   1216,   35.7751579,   274.118408,   80.8167038
   1217,   45.8160553,   274.118408,   75.5783691
   1218,   55.1046524,   274.118408,   69.0990448
   1219,   63.4884338,   274.118408,   61.4851189
   1220,   70.8297348,   274.118408,   52.8616066
   1221,   77.0080185,   274.118408,   43.3701096
   1222,   81.9218292,   274.118408,   33.1664734
   1223,   85.4904861,   274.118408,   22.4182453
   1224,   87.6553955,   274.118408,   11.3019114
   1225,   88.3809967,   274.118408,           0.
   1226,   87.6553955,   285.540009,  -11.3019114
   1227,   85.4904861,   285.540009,  -22.4182453
   1228,   81.9218292,   285.540009,  -33.1664734
   1229,   77.0080185,   285.540009,  -43.3701096
   1230,   70.8297348,   285.540009,  -52.8616066
   1231,   63.4884338,   285.540009,  -61.4851189
   1232,   55.1046524,   285.540009,  -69.0990448
   1233,   45.8160553,   285.540009,  -75.5783691
   1234,   35.7751579,   285.540009,  -80.8167038
   1235,   25.1468353,   285.540009,  -84.7280197
   1236,   14.1055984,   285.540009,  -87.2481155
   1237,   2.83275056,   285.540009,  -88.3355942
   1238,  -8.48661137,   285.540009,  -87.9726028
   1239,  -19.6666222,   285.540009,  -86.1651001
   1240,  -30.5237083,   285.540009,  -82.9427795
   1241,  -40.8795967,   285.540009,  -78.3585358
   1242,  -50.5642433,   285.540009,  -72.4876404
   1243,  -59.4186249,   285.540009,   -65.426506
   1244,  -67.2973557,   285.540009,  -57.2910728
   1245,  -74.0710678,   285.540009,    -48.21492
   1246,  -79.6285324,   285.540009,  -38.3470802
   1247,  -83.8784943,   285.540009,  -27.8495789
   1248,  -86.7511826,   285.540009,  -16.8947906
   1249,  -88.1994095,   285.540009,  -5.66259003
   1250,  -88.1994095,   285.540009,   5.66259003
   1251,  -86.7511826,   285.540009,   16.8947906
   1252,  -83.8784943,   285.540009,   27.8495789
   1253,  -79.6285324,   285.540009,   38.3470802
   1254,  -74.0710678,   285.540009,     48.21492
   1255,  -67.2973557,   285.540009,   57.2910728
   1256,  -59.4186249,   285.540009,    65.426506
   1257,  -50.5642433,   285.540009,   72.4876404
   1258,  -40.8795967,   285.540009,   78.3585358
   1259,  -30.5237083,   285.540009,   82.9427795
   1260,  -19.6666222,   285.540009,   86.1651001
   1261,  -8.48661137,   285.540009,   87.9726028
   1262,   2.83275056,   285.540009,   88.3355942
   1263,   14.1055984,   285.540009,   87.2481155
   1264,   25.1468353,   285.540009,   84.7280197
   1265,   35.7751579,   285.540009,   80.8167038
   1266,   45.8160553,   285.540009,   75.5783691
   1267,   55.1046524,   285.540009,   69.0990448
   1268,   63.4884338,   285.540009,   61.4851189
   1269,   70.8297348,   285.540009,   52.8616066
   1270,   77.0080185,   285.540009,   43.3701096
   1271,   81.9218292,   285.540009,   33.1664734
   1272,   85.4904861,   285.540009,   22.4182453
   1273,   87.6553955,   285.540009,   11.3019114
   1274,   88.3809967,   285.540009,           0.
   1275,   87.6553955,   296.961609,  -11.3019114
   1276,   85.4904861,   296.961609,  -22.4182453
   1277,   81.9218292,   296.961609,  -33.1664734
   1278,   77.0080185,   296.961609,  -43.3701096
   1279,   70.8297348,   296.961609,  -52.8616066
   1280,   63.4884338,   296.961609,  -61.4851189
   1281,   55.1046524,   296.961609,  -69.0990448
   1282,   45.8160553,   296.961609,  -75.5783691
   1283,   35.7751579,   296.961609,  -80.8167038
   1284,   25.1468353,   296.961609,  -84.7280197
   1285,   14.1055984,   296.961609,  -87.2481155
   1286,   2.83275056,   296.961609,  -88.3355942
   1287,  -8.48661137,   296.961609,  -87.9726028
   1288,  -19.6666222,   296.961609,  -86.1651001
   1289,  -30.5237083,   296.961609,  -82.9427795
   1290,  -40.8795967,   296.961609,  -78.3585358
   1291,  -50.5642433,   296.961609,  -72.4876404
   1292,  -59.4186249,   296.961609,   -65.426506
   1293,  -67.2973557,   296.961609,  -57.2910728
   1294,  -74.0710678,   296.961609,    -48.21492
   1295,  -79.6285324,   296.961609,  -38.3470802
   1296,  -83.8784943,   296.961609,  -27.8495789
   1297,  -86.7511826,   296.961609,  -16.8947906
   1298,  -88.1994095,   296.961609,  -5.66259003
   1299,  -88.1994095,   296.961609,   5.66259003
   1300,  -86.7511826,   296.961609,   16.8947906
   1301,  -83.8784943,   296.961609,   27.8495789
   1302,  -79.6285324,   296.961609,   38.3470802
   1303,  -74.0710678,   296.961609,     48.21492
   1304,  -67.2973557,   296.961609,   57.2910728
   1305,  -59.4186249,   296.961609,    65.426506
   1306,  -50.5642433,   296.961609,   72.4876404
   1307,  -40.8795967,   296.961609,   78.3585358
   1308,  -30.5237083,   296.961609,   82.9427795
   1309,  -19.6666222,   296.961609,   86.1651001
   1310,  -8.48661137,   296.961609,   87.9726028
   1311,   2.83275056,   296.961609,   88.3355942
   1312,   14.1055984,   296.961609,   87.2481155
   1313,   25.1468353,   296.961609,   84.7280197
   1314,   35.7751579,   296.961609,   80.8167038
   1315,   45.8160553,   296.961609,   75.5783691
   1316,   55.1046524,   296.961609,   69.0990448
   1317,   63.4884338,   296.961609,   61.4851189
   1318,   70.8297348,   296.961609,   52.8616066
   1319,   77.0080185,   296.961609,   43.3701096
   1320,   81.9218292,   296.961609,   33.1664734
   1321,   85.4904861,   296.961609,   22.4182453
   1322,   87.6553955,   296.961609,   11.3019114
   1323,   88.3809967,   296.961609,           0.
   1324,   87.6553955,   308.383209,  -11.3019114
   1325,   85.4904861,   308.383209,  -22.4182453
   1326,   81.9218292,   308.383209,  -33.1664734
   1327,   77.0080185,   308.383209,  -43.3701096
   1328,   70.8297348,   308.383209,  -52.8616066
   1329,   63.4884338,   308.383209,  -61.4851189
   1330,   55.1046524,   308.383209,  -69.0990448
   1331,   45.8160553,   308.383209,  -75.5783691
   1332,   35.7751579,   308.383209,  -80.8167038
   1333,   25.1468353,   308.383209,  -84.7280197
   1334,   14.1055984,   308.383209,  -87.2481155
   1335,   2.83275056,   308.383209,  -88.3355942
   1336,  -8.48661137,   308.383209,  -87.9726028
   1337,  -19.6666222,   308.383209,  -86.1651001
   1338,  -30.5237083,   308.383209,  -82.9427795
   1339,  -40.8795967,   308.383209,  -78.3585358
   1340,  -50.5642433,   308.383209,  -72.4876404
   1341,  -59.4186249,   308.383209,   -65.426506
   1342,  -67.2973557,   308.383209,  -57.2910728
   1343,  -74.0710678,   308.383209,    -48.21492
   1344,  -79.6285324,   308.383209,  -38.3470802
   1345,  -83.8784943,   308.383209,  -27.8495789
   1346,  -86.7511826,   308.383209,  -16.8947906
   1347,  -88.1994095,   308.383209,  -5.66259003
   1348,  -88.1994095,   308.383209,   5.66259003
   1349,  -86.7511826,   308.383209,   16.8947906
   1350,  -83.8784943,   308.383209,   27.8495789
   1351,  -79.6285324,   308.383209,   38.3470802
   1352,  -74.0710678,   308.383209,     48.21492
   1353,  -67.2973557,   308.383209,   57.2910728
   1354,  -59.4186249,   308.383209,    65.426506
   1355,  -50.5642433,   308.383209,   72.4876404
   1356,  -40.8795967,   308.383209,   78.3585358
   1357,  -30.5237083,   308.383209,   82.9427795
   1358,  -19.6666222,   308.383209,   86.1651001
   1359,  -8.48661137,   308.383209,   87.9726028
   1360,   2.83275056,   308.383209,   88.3355942
   1361,   14.1055984,   308.383209,   87.2481155
   1362,   25.1468353,   308.383209,   84.7280197
   1363,   35.7751579,   308.383209,   80.8167038
   1364,   45.8160553,   308.383209,   75.5783691
   1365,   55.1046524,   308.383209,   69.0990448
   1366,   63.4884338,   308.383209,   61.4851189
   1367,   70.8297348,   308.383209,   52.8616066
   1368,   77.0080185,   308.383209,   43.3701096
   1369,   81.9218292,   308.383209,   33.1664734
   1370,   85.4904861,   308.383209,   22.4182453
   1371,   87.6553955,   308.383209,   11.3019114
   1372,   88.3809967,   308.383209,           0.
   1373,   87.6553955,    319.80481,  -11.3019114
   1374,   85.4904861,    319.80481,  -22.4182453
   1375,   81.9218292,    319.80481,  -33.1664734
   1376,   77.0080185,    319.80481,  -43.3701096
   1377,   70.8297348,    319.80481,  -52.8616066
   1378,   63.4884338,    319.80481,  -61.4851189
   1379,   55.1046524,    319.80481,  -69.0990448
   1380,   45.8160553,    319.80481,  -75.5783691
   1381,   35.7751579,    319.80481,  -80.8167038
   1382,   25.1468353,    319.80481,  -84.7280197
   1383,   14.1055984,    319.80481,  -87.2481155
   1384,   2.83275056,    319.80481,  -88.3355942
   1385,  -8.48661137,    319.80481,  -87.9726028
   1386,  -19.6666222,    319.80481,  -86.1651001
   1387,  -30.5237083,    319.80481,  -82.9427795
   1388,  -40.8795967,    319.80481,  -78.3585358
   1389,  -50.5642433,    319.80481,  -72.4876404
   1390,  -59.4186249,    319.80481,   -65.426506
   1391,  -67.2973557,    319.80481,  -57.2910728
   1392,  -74.0710678,    319.80481,    -48.21492
   1393,  -79.6285324,    319.80481,  -38.3470802
   1394,  -83.8784943,    319.80481,  -27.8495789
   1395,  -86.7511826,    319.80481,  -16.8947906
   1396,  -88.1994095,    319.80481,  -5.66259003
   1397,  -88.1994095,    319.80481,   5.66259003
   1398,  -86.7511826,    319.80481,   16.8947906
   1399,  -83.8784943,    319.80481,   27.8495789
   1400,  -79.6285324,    319.80481,   38.3470802
   1401,  -74.0710678,    319.80481,     48.21492
   1402,  -67.2973557,    319.80481,   57.2910728
   1403,  -59.4186249,    319.80481,    65.426506
   1404,  -50.5642433,    319.80481,   72.4876404
   1405,  -40.8795967,    319.80481,   78.3585358
   1406,  -30.5237083,    319.80481,   82.9427795
   1407,  -19.6666222,    319.80481,   86.1651001
   1408,  -8.48661137,    319.80481,   87.9726028
   1409,   2.83275056,    319.80481,   88.3355942
   1410,   14.1055984,    319.80481,   87.2481155
   1411,   25.1468353,    319.80481,   84.7280197
   1412,   35.7751579,    319.80481,   80.8167038
   1413,   45.8160553,    319.80481,   75.5783691
   1414,   55.1046524,    319.80481,   69.0990448
   1415,   63.4884338,    319.80481,   61.4851189
   1416,   70.8297348,    319.80481,   52.8616066
   1417,   77.0080185,    319.80481,   43.3701096
   1418,   81.9218292,    319.80481,   33.1664734
   1419,   85.4904861,    319.80481,   22.4182453
   1420,   87.6553955,    319.80481,   11.3019114
   1421,   88.3809967,    319.80481,           0.
   1422,   87.6553955,    331.22641,  -11.3019114
   1423,   85.4904861,    331.22641,  -22.4182453
   1424,   81.9218292,    331.22641,  -33.1664734
   1425,   77.0080185,    331.22641,  -43.3701096
   1426,   70.8297348,    331.22641,  -52.8616066
   1427,   63.4884338,    331.22641,  -61.4851189
   1428,   55.1046524,    331.22641,  -69.0990448
   1429,   45.8160553,    331.22641,  -75.5783691
   1430,   35.7751579,    331.22641,  -80.8167038
   1431,   25.1468353,    331.22641,  -84.7280197
   1432,   14.1055984,    331.22641,  -87.2481155
   1433,   2.83275056,    331.22641,  -88.3355942
   1434,  -8.48661137,    331.22641,  -87.9726028
   1435,  -19.6666222,    331.22641,  -86.1651001
   1436,  -30.5237083,    331.22641,  -82.9427795
   1437,  -40.8795967,    331.22641,  -78.3585358
   1438,  -50.5642433,    331.22641,  -72.4876404
   1439,  -59.4186249,    331.22641,   -65.426506
   1440,  -67.2973557,    331.22641,  -57.2910728
   1441,  -74.0710678,    331.22641,    -48.21492
   1442,  -79.6285324,    331.22641,  -38.3470802
   1443,  -83.8784943,    331.22641,  -27.8495789
   1444,  -86.7511826,    331.22641,  -16.8947906
   1445,  -88.1994095,    331.22641,  -5.66259003
   1446,  -88.1994095,    331.22641,   5.66259003
   1447,  -86.7511826,    331.22641,   16.8947906
   1448,  -83.8784943,    331.22641,   27.8495789
   1449,  -79.6285324,    331.22641,   38.3470802
   1450,  -74.0710678,    331.22641,     48.21492
   1451,  -67.2973557,    331.22641,   57.2910728
   1452,  -59.4186249,    331.22641,    65.426506
   1453,  -50.5642433,    331.22641,   72.4876404
   1454,  -40.8795967,    331.22641,   78.3585358
   1455,  -30.5237083,    331.22641,   82.9427795
   1456,  -19.6666222,    331.22641,   86.1651001
   1457,  -8.48661137,    331.22641,   87.9726028
   1458,   2.83275056,    331.22641,   88.3355942
   1459,   14.1055984,    331.22641,   87.2481155
   1460,   25.1468353,    331.22641,   84.7280197
   1461,   35.7751579,    331.22641,   80.8167038
   1462,   45.8160553,    331.22641,   75.5783691
   1463,   55.1046524,    331.22641,   69.0990448
   1464,   63.4884338,    331.22641,   61.4851189
   1465,   70.8297348,    331.22641,   52.8616066
   1466,   77.0080185,    331.22641,   43.3701096
   1467,   81.9218292,    331.22641,   33.1664734
   1468,   85.4904861,    331.22641,   22.4182453
   1469,   87.6553955,    331.22641,   11.3019114
   1470,   88.3809967,    331.22641,           0.
   1471,   87.6553955,    342.64801,  -11.3019114
   1472,   85.4904861,    342.64801,  -22.4182453
   1473,   81.9218292,    342.64801,  -33.1664734
   1474,   77.0080185,    342.64801,  -43.3701096
   1475,   70.8297348,    342.64801,  -52.8616066
   1476,   63.4884338,    342.64801,  -61.4851189
   1477,   55.1046524,    342.64801,  -69.0990448
   1478,   45.8160553,    342.64801,  -75.5783691
   1479,   35.7751579,    342.64801,  -80.8167038
   1480,   25.1468334,    342.64801,  -84.7280197
   1481,   14.1055984,    342.64801,  -87.2481155
   1482,   2.83275056,    342.64801,  -88.3355942
   1483,  -8.48661137,    342.64801,  -87.9726028
   1484,  -19.6666222,    342.64801,  -86.1651001
   1485,  -30.5237083,    342.64801,  -82.9427795
   1486,  -40.8795967,    342.64801,  -78.3585358
   1487,  -50.5642433,    342.64801,  -72.4876404
   1488,  -59.4186249,    342.64801,   -65.426506
   1489,  -67.2973557,    342.64801,  -57.2910728
   1490,  -74.0710678,    342.64801,    -48.21492
   1491,  -79.6285324,    342.64801,  -38.3470802
   1492,  -83.8784943,    342.64801,  -27.8495789
   1493,  -86.7511826,    342.64801,  -16.8947906
   1494,  -88.1994095,    342.64801,  -5.66259003
   1495,  -88.1994095,    342.64801,   5.66259003
   1496,  -86.7511826,    342.64801,   16.8947906
   1497,  -83.8784943,    342.64801,   27.8495789
   1498,  -79.6285324,    342.64801,   38.3470802
   1499,  -74.0710678,    342.64801,     48.21492
   1500,  -67.2973557,    342.64801,   57.2910728
   1501,  -59.4186249,    342.64801,    65.426506
   1502,  -50.5642433,    342.64801,   72.4876404
   1503,  -40.8795967,    342.64801,   78.3585358
   1504,  -30.5237083,    342.64801,   82.9427795
   1505,  -19.6666222,    342.64801,   86.1651001
   1506,  -8.48661137,    342.64801,   87.9726028
   1507,   2.83275056,    342.64801,   88.3355942
   1508,   14.1055984,    342.64801,   87.2481155
   1509,   25.1468334,    342.64801,   84.7280197
   1510,   35.7751579,    342.64801,   80.8167038
   1511,   45.8160553,    342.64801,   75.5783691
   1512,   55.1046524,    342.64801,   69.0990448
   1513,   63.4884338,    342.64801,   61.4851189
   1514,   70.8297348,    342.64801,   52.8616066
   1515,   77.0080185,    342.64801,   43.3701096
   1516,   81.9218292,    342.64801,   33.1664734
   1517,   85.4904861,    342.64801,   22.4182453
   1518,   87.6553955,    342.64801,   11.3019114
   1519,   88.3809967,    342.64801,           0.
*Element, type=S4R
   1,   49,    1,   50,   98
   2,    1,    2,   51,   50
   3,    2,    3,   52,   51
   4,    3,    4,   53,   52
   5,    4,    5,   54,   53
   6,    5,    6,   55,   54
   7,    6,    7,   56,   55
   8,    7,    8,   57,   56
   9,    8,    9,   58,   57
  10,    9,   10,   59,   58
  11,   10,   11,   60,   59
  12,   11,   12,   61,   60
  13,   12,   13,   62,   61
  14,   13,   14,   63,   62
  15,   14,   15,   64,   63
  16,   15,   16,   65,   64
  17,   16,   17,   66,   65
  18,   17,   18,   67,   66
  19,   18,   19,   68,   67
  20,   19,   20,   69,   68
  21,   20,   21,   70,   69
  22,   21,   22,   71,   70
  23,   22,   23,   72,   71
  24,   23,   24,   73,   72
  25,   24,   25,   74,   73
  26,   25,   26,   75,   74
  27,   26,   27,   76,   75
  28,   27,   28,   77,   76
  29,   28,   29,   78,   77
  30,   29,   30,   79,   78
  31,   30,   31,   80,   79
  32,   31,   32,   81,   80
  33,   32,   33,   82,   81
  34,   33,   34,   83,   82
  35,   34,   35,   84,   83
  36,   35,   36,   85,   84
  37,   36,   37,   86,   85
  38,   37,   38,   87,   86
  39,   38,   39,   88,   87
  40,   39,   40,   89,   88
  41,   40,   41,   90,   89
  42,   41,   42,   91,   90
  43,   42,   43,   92,   91
  44,   43,   44,   93,   92
  45,   44,   45,   94,   93
  46,   45,   46,   95,   94
  47,   46,   47,   96,   95
  48,   47,   48,   97,   96
  49,   48,   49,   98,   97
  50,   98,   50,   99,  147
  51,   50,   51,  100,   99
  52,   51,   52,  101,  100
  53,   52,   53,  102,  101
  54,   53,   54,  103,  102
  55,   54,   55,  104,  103
  56,   55,   56,  105,  104
  57,   56,   57,  106,  105
  58,   57,   58,  107,  106
  59,   58,   59,  108,  107
  60,   59,   60,  109,  108
  61,   60,   61,  110,  109
  62,   61,   62,  111,  110
  63,   62,   63,  112,  111
  64,   63,   64,  113,  112
  65,   64,   65,  114,  113
  66,   65,   66,  115,  114
  67,   66,   67,  116,  115
  68,   67,   68,  117,  116
  69,   68,   69,  118,  117
  70,   69,   70,  119,  118
  71,   70,   71,  120,  119
  72,   71,   72,  121,  120
  73,   72,   73,  122,  121
  74,   73,   74,  123,  122
  75,   74,   75,  124,  123
  76,   75,   76,  125,  124
  77,   76,   77,  126,  125
  78,   77,   78,  127,  126
  79,   78,   79,  128,  127
  80,   79,   80,  129,  128
  81,   80,   81,  130,  129
  82,   81,   82,  131,  130
  83,   82,   83,  132,  131
  84,   83,   84,  133,  132
  85,   84,   85,  134,  133
  86,   85,   86,  135,  134
  87,   86,   87,  136,  135
  88,   87,   88,  137,  136
  89,   88,   89,  138,  137
  90,   89,   90,  139,  138
  91,   90,   91,  140,  139
  92,   91,   92,  141,  140
  93,   92,   93,  142,  141
  94,   93,   94,  143,  142
  95,   94,   95,  144,  143
  96,   95,   96,  145,  144
  97,   96,   97,  146,  145
  98,   97,   98,  147,  146
  99,  147,   99,  148,  196
 100,   99,  100,  149,  148
 101,  100,  101,  150,  149
 102,  101,  102,  151,  150
 103,  102,  103,  152,  151
 104,  103,  104,  153,  152
 105,  104,  105,  154,  153
 106,  105,  106,  155,  154
 107,  106,  107,  156,  155
 108,  107,  108,  157,  156
 109,  108,  109,  158,  157
 110,  109,  110,  159,  158
 111,  110,  111,  160,  159
 112,  111,  112,  161,  160
 113,  112,  113,  162,  161
 114,  113,  114,  163,  162
 115,  114,  115,  164,  163
 116,  115,  116,  165,  164
 117,  116,  117,  166,  165
 118,  117,  118,  167,  166
 119,  118,  119,  168,  167
 120,  119,  120,  169,  168
 121,  120,  121,  170,  169
 122,  121,  122,  171,  170
 123,  122,  123,  172,  171
 124,  123,  124,  173,  172
 125,  124,  125,  174,  173
 126,  125,  126,  175,  174
 127,  126,  127,  176,  175
 128,  127,  128,  177,  176
 129,  128,  129,  178,  177
 130,  129,  130,  179,  178
 131,  130,  131,  180,  179
 132,  131,  132,  181,  180
 133,  132,  133,  182,  181
 134,  133,  134,  183,  182
 135,  134,  135,  184,  183
 136,  135,  136,  185,  184
 137,  136,  137,  186,  185
 138,  137,  138,  187,  186
 139,  138,  139,  188,  187
 140,  139,  140,  189,  188
 141,  140,  141,  190,  189
 142,  141,  142,  191,  190
 143,  142,  143,  192,  191
 144,  143,  144,  193,  192
 145,  144,  145,  194,  193
 146,  145,  146,  195,  194
 147,  146,  147,  196,  195
 148,  196,  148,  197,  245
 149,  148,  149,  198,  197
 150,  149,  150,  199,  198
 151,  150,  151,  200,  199
 152,  151,  152,  201,  200
 153,  152,  153,  202,  201
 154,  153,  154,  203,  202
 155,  154,  155,  204,  203
 156,  155,  156,  205,  204
 157,  156,  157,  206,  205
 158,  157,  158,  207,  206
 159,  158,  159,  208,  207
 160,  159,  160,  209,  208
 161,  160,  161,  210,  209
 162,  161,  162,  211,  210
 163,  162,  163,  212,  211
 164,  163,  164,  213,  212
 165,  164,  165,  214,  213
 166,  165,  166,  215,  214
 167,  166,  167,  216,  215
 168,  167,  168,  217,  216
 169,  168,  169,  218,  217
 170,  169,  170,  219,  218
 171,  170,  171,  220,  219
 172,  171,  172,  221,  220
 173,  172,  173,  222,  221
 174,  173,  174,  223,  222
 175,  174,  175,  224,  223
 176,  175,  176,  225,  224
 177,  176,  177,  226,  225
 178,  177,  178,  227,  226
 179,  178,  179,  228,  227
 180,  179,  180,  229,  228
 181,  180,  181,  230,  229
 182,  181,  182,  231,  230
 183,  182,  183,  232,  231
 184,  183,  184,  233,  232
 185,  184,  185,  234,  233
 186,  185,  186,  235,  234
 187,  186,  187,  236,  235
 188,  187,  188,  237,  236
 189,  188,  189,  238,  237
 190,  189,  190,  239,  238
 191,  190,  191,  240,  239
 192,  191,  192,  241,  240
 193,  192,  193,  242,  241
 194,  193,  194,  243,  242
 195,  194,  195,  244,  243
 196,  195,  196,  245,  244
 197,  245,  197,  246,  294
 198,  197,  198,  247,  246
 199,  198,  199,  248,  247
 200,  199,  200,  249,  248
 201,  200,  201,  250,  249
 202,  201,  202,  251,  250
 203,  202,  203,  252,  251
 204,  203,  204,  253,  252
 205,  204,  205,  254,  253
 206,  205,  206,  255,  254
 207,  206,  207,  256,  255
 208,  207,  208,  257,  256
 209,  208,  209,  258,  257
 210,  209,  210,  259,  258
 211,  210,  211,  260,  259
 212,  211,  212,  261,  260
 213,  212,  213,  262,  261
 214,  213,  214,  263,  262
 215,  214,  215,  264,  263
 216,  215,  216,  265,  264
 217,  216,  217,  266,  265
 218,  217,  218,  267,  266
 219,  218,  219,  268,  267
 220,  219,  220,  269,  268
 221,  220,  221,  270,  269
 222,  221,  222,  271,  270
 223,  222,  223,  272,  271
 224,  223,  224,  273,  272
 225,  224,  225,  274,  273
 226,  225,  226,  275,  274
 227,  226,  227,  276,  275
 228,  227,  228,  277,  276
 229,  228,  229,  278,  277
 230,  229,  230,  279,  278
 231,  230,  231,  280,  279
 232,  231,  232,  281,  280
 233,  232,  233,  282,  281
 234,  233,  234,  283,  282
 235,  234,  235,  284,  283
 236,  235,  236,  285,  284
 237,  236,  237,  286,  285
 238,  237,  238,  287,  286
 239,  238,  239,  288,  287
 240,  239,  240,  289,  288
 241,  240,  241,  290,  289
 242,  241,  242,  291,  290
 243,  242,  243,  292,  291
 244,  243,  244,  293,  292
 245,  244,  245,  294,  293
 246,  294,  246,  295,  343
 247,  246,  247,  296,  295
 248,  247,  248,  297,  296
 249,  248,  249,  298,  297
 250,  249,  250,  299,  298
 251,  250,  251,  300,  299
 252,  251,  252,  301,  300
 253,  252,  253,  302,  301
 254,  253,  254,  303,  302
 255,  254,  255,  304,  303
 256,  255,  256,  305,  304
 257,  256,  257,  306,  305
 258,  257,  258,  307,  306
 259,  258,  259,  308,  307
 260,  259,  260,  309,  308
 261,  260,  261,  310,  309
 262,  261,  262,  311,  310
 263,  262,  263,  312,  311
 264,  263,  264,  313,  312
 265,  264,  265,  314,  313
 266,  265,  266,  315,  314
 267,  266,  267,  316,  315
 268,  267,  268,  317,  316
 269,  268,  269,  318,  317
 270,  269,  270,  319,  318
 271,  270,  271,  320,  319
 272,  271,  272,  321,  320
 273,  272,  273,  322,  321
 274,  273,  274,  323,  322
 275,  274,  275,  324,  323
 276,  275,  276,  325,  324
 277,  276,  277,  326,  325
 278,  277,  278,  327,  326
 279,  278,  279,  328,  327
 280,  279,  280,  329,  328
 281,  280,  281,  330,  329
 282,  281,  282,  331,  330
 283,  282,  283,  332,  331
 284,  283,  284,  333,  332
 285,  284,  285,  334,  333
 286,  285,  286,  335,  334
 287,  286,  287,  336,  335
 288,  287,  288,  337,  336
 289,  288,  289,  338,  337
 290,  289,  290,  339,  338
 291,  290,  291,  340,  339
 292,  291,  292,  341,  340
 293,  292,  293,  342,  341
 294,  293,  294,  343,  342
 295,  343,  295,  344,  392
 296,  295,  296,  345,  344
 297,  296,  297,  346,  345
 298,  297,  298,  347,  346
 299,  298,  299,  348,  347
 300,  299,  300,  349,  348
 301,  300,  301,  350,  349
 302,  301,  302,  351,  350
 303,  302,  303,  352,  351
 304,  303,  304,  353,  352
 305,  304,  305,  354,  353
 306,  305,  306,  355,  354
 307,  306,  307,  356,  355
 308,  307,  308,  357,  356
 309,  308,  309,  358,  357
 310,  309,  310,  359,  358
 311,  310,  311,  360,  359
 312,  311,  312,  361,  360
 313,  312,  313,  362,  361
 314,  313,  314,  363,  362
 315,  314,  315,  364,  363
 316,  315,  316,  365,  364
 317,  316,  317,  366,  365
 318,  317,  318,  367,  366
 319,  318,  319,  368,  367
 320,  319,  320,  369,  368
 321,  320,  321,  370,  369
 322,  321,  322,  371,  370
 323,  322,  323,  372,  371
 324,  323,  324,  373,  372
 325,  324,  325,  374,  373
 326,  325,  326,  375,  374
 327,  326,  327,  376,  375
 328,  327,  328,  377,  376
 329,  328,  329,  378,  377
 330,  329,  330,  379,  378
 331,  330,  331,  380,  379
 332,  331,  332,  381,  380
 333,  332,  333,  382,  381
 334,  333,  334,  383,  382
 335,  334,  335,  384,  383
 336,  335,  336,  385,  384
 337,  336,  337,  386,  385
 338,  337,  338,  387,  386
 339,  338,  339,  388,  387
 340,  339,  340,  389,  388
 341,  340,  341,  390,  389
 342,  341,  342,  391,  390
 343,  342,  343,  392,  391
 344,  392,  344,  393,  441
 345,  344,  345,  394,  393
 346,  345,  346,  395,  394
 347,  346,  347,  396,  395
 348,  347,  348,  397,  396
 349,  348,  349,  398,  397
 350,  349,  350,  399,  398
 351,  350,  351,  400,  399
 352,  351,  352,  401,  400
 353,  352,  353,  402,  401
 354,  353,  354,  403,  402
 355,  354,  355,  404,  403
 356,  355,  356,  405,  404
 357,  356,  357,  406,  405
 358,  357,  358,  407,  406
 359,  358,  359,  408,  407
 360,  359,  360,  409,  408
 361,  360,  361,  410,  409
 362,  361,  362,  411,  410
 363,  362,  363,  412,  411
 364,  363,  364,  413,  412
 365,  364,  365,  414,  413
 366,  365,  366,  415,  414
 367,  366,  367,  416,  415
 368,  367,  368,  417,  416
 369,  368,  369,  418,  417
 370,  369,  370,  419,  418
 371,  370,  371,  420,  419
 372,  371,  372,  421,  420
 373,  372,  373,  422,  421
 374,  373,  374,  423,  422
 375,  374,  375,  424,  423
 376,  375,  376,  425,  424
 377,  376,  377,  426,  425
 378,  377,  378,  427,  426
 379,  378,  379,  428,  427
 380,  379,  380,  429,  428
 381,  380,  381,  430,  429
 382,  381,  382,  431,  430
 383,  382,  383,  432,  431
 384,  383,  384,  433,  432
 385,  384,  385,  434,  433
 386,  385,  386,  435,  434
 387,  386,  387,  436,  435
 388,  387,  388,  437,  436
 389,  388,  389,  438,  437
 390,  389,  390,  439,  438
 391,  390,  391,  440,  439
 392,  391,  392,  441,  440
 393,  441,  393,  442,  490
 394,  393,  394,  443,  442
 395,  394,  395,  444,  443
 396,  395,  396,  445,  444
 397,  396,  397,  446,  445
 398,  397,  398,  447,  446
 399,  398,  399,  448,  447
 400,  399,  400,  449,  448
 401,  400,  401,  450,  449
 402,  401,  402,  451,  450
 403,  402,  403,  452,  451
 404,  403,  404,  453,  452
 405,  404,  405,  454,  453
 406,  405,  406,  455,  454
 407,  406,  407,  456,  455
 408,  407,  408,  457,  456
 409,  408,  409,  458,  457
 410,  409,  410,  459,  458
 411,  410,  411,  460,  459
 412,  411,  412,  461,  460
 413,  412,  413,  462,  461
 414,  413,  414,  463,  462
 415,  414,  415,  464,  463
 416,  415,  416,  465,  464
 417,  416,  417,  466,  465
 418,  417,  418,  467,  466
 419,  418,  419,  468,  467
 420,  419,  420,  469,  468
 421,  420,  421,  470,  469
 422,  421,  422,  471,  470
 423,  422,  423,  472,  471
 424,  423,  424,  473,  472
 425,  424,  425,  474,  473
 426,  425,  426,  475,  474
 427,  426,  427,  476,  475
 428,  427,  428,  477,  476
 429,  428,  429,  478,  477
 430,  429,  430,  479,  478
 431,  430,  431,  480,  479
 432,  431,  432,  481,  480
 433,  432,  433,  482,  481
 434,  433,  434,  483,  482
 435,  434,  435,  484,  483
 436,  435,  436,  485,  484
 437,  436,  437,  486,  485
 438,  437,  438,  487,  486
 439,  438,  439,  488,  487
 440,  439,  440,  489,  488
 441,  440,  441,  490,  489
 442,  490,  442,  491,  539
 443,  442,  443,  492,  491
 444,  443,  444,  493,  492
 445,  444,  445,  494,  493
 446,  445,  446,  495,  494
 447,  446,  447,  496,  495
 448,  447,  448,  497,  496
 449,  448,  449,  498,  497
 450,  449,  450,  499,  498
 451,  450,  451,  500,  499
 452,  451,  452,  501,  500
 453,  452,  453,  502,  501
 454,  453,  454,  503,  502
 455,  454,  455,  504,  503
 456,  455,  456,  505,  504
 457,  456,  457,  506,  505
 458,  457,  458,  507,  506
 459,  458,  459,  508,  507
 460,  459,  460,  509,  508
 461,  460,  461,  510,  509
 462,  461,  462,  511,  510
 463,  462,  463,  512,  511
 464,  463,  464,  513,  512
 465,  464,  465,  514,  513
 466,  465,  466,  515,  514
 467,  466,  467,  516,  515
 468,  467,  468,  517,  516
 469,  468,  469,  518,  517
 470,  469,  470,  519,  518
 471,  470,  471,  520,  519
 472,  471,  472,  521,  520
 473,  472,  473,  522,  521
 474,  473,  474,  523,  522
 475,  474,  475,  524,  523
 476,  475,  476,  525,  524
 477,  476,  477,  526,  525
 478,  477,  478,  527,  526
 479,  478,  479,  528,  527
 480,  479,  480,  529,  528
 481,  480,  481,  530,  529
 482,  481,  482,  531,  530
 483,  482,  483,  532,  531
 484,  483,  484,  533,  532
 485,  484,  485,  534,  533
 486,  485,  486,  535,  534
 487,  486,  487,  536,  535
 488,  487,  488,  537,  536
 489,  488,  489,  538,  537
 490,  489,  490,  539,  538
 491,  539,  491,  540,  588
 492,  491,  492,  541,  540
 493,  492,  493,  542,  541
 494,  493,  494,  543,  542
 495,  494,  495,  544,  543
 496,  495,  496,  545,  544
 497,  496,  497,  546,  545
 498,  497,  498,  547,  546
 499,  498,  499,  548,  547
 500,  499,  500,  549,  548
 501,  500,  501,  550,  549
 502,  501,  502,  551,  550
 503,  502,  503,  552,  551
 504,  503,  504,  553,  552
 505,  504,  505,  554,  553
 506,  505,  506,  555,  554
 507,  506,  507,  556,  555
 508,  507,  508,  557,  556
 509,  508,  509,  558,  557
 510,  509,  510,  559,  558
 511,  510,  511,  560,  559
 512,  511,  512,  561,  560
 513,  512,  513,  562,  561
 514,  513,  514,  563,  562
 515,  514,  515,  564,  563
 516,  515,  516,  565,  564
 517,  516,  517,  566,  565
 518,  517,  518,  567,  566
 519,  518,  519,  568,  567
 520,  519,  520,  569,  568
 521,  520,  521,  570,  569
 522,  521,  522,  571,  570
 523,  522,  523,  572,  571
 524,  523,  524,  573,  572
 525,  524,  525,  574,  573
 526,  525,  526,  575,  574
 527,  526,  527,  576,  575
 528,  527,  528,  577,  576
 529,  528,  529,  578,  577
 530,  529,  530,  579,  578
 531,  530,  531,  580,  579
 532,  531,  532,  581,  580
 533,  532,  533,  582,  581
 534,  533,  534,  583,  582
 535,  534,  535,  584,  583
 536,  535,  536,  585,  584
 537,  536,  537,  586,  585
 538,  537,  538,  587,  586
 539,  538,  539,  588,  587
 540,  588,  540,  589,  637
 541,  540,  541,  590,  589
 542,  541,  542,  591,  590
 543,  542,  543,  592,  591
 544,  543,  544,  593,  592
 545,  544,  545,  594,  593
 546,  545,  546,  595,  594
 547,  546,  547,  596,  595
 548,  547,  548,  597,  596
 549,  548,  549,  598,  597
 550,  549,  550,  599,  598
 551,  550,  551,  600,  599
 552,  551,  552,  601,  600
 553,  552,  553,  602,  601
 554,  553,  554,  603,  602
 555,  554,  555,  604,  603
 556,  555,  556,  605,  604
 557,  556,  557,  606,  605
 558,  557,  558,  607,  606
 559,  558,  559,  608,  607
 560,  559,  560,  609,  608
 561,  560,  561,  610,  609
 562,  561,  562,  611,  610
 563,  562,  563,  612,  611
 564,  563,  564,  613,  612
 565,  564,  565,  614,  613
 566,  565,  566,  615,  614
 567,  566,  567,  616,  615
 568,  567,  568,  617,  616
 569,  568,  569,  618,  617
 570,  569,  570,  619,  618
 571,  570,  571,  620,  619
 572,  571,  572,  621,  620
 573,  572,  573,  622,  621
 574,  573,  574,  623,  622
 575,  574,  575,  624,  623
 576,  575,  576,  625,  624
 577,  576,  577,  626,  625
 578,  577,  578,  627,  626
 579,  578,  579,  628,  627
 580,  579,  580,  629,  628
 581,  580,  581,  630,  629
 582,  581,  582,  631,  630
 583,  582,  583,  632,  631
 584,  583,  584,  633,  632
 585,  584,  585,  634,  633
 586,  585,  586,  635,  634
 587,  586,  587,  636,  635
 588,  587,  588,  637,  636
 589,  637,  589,  638,  686
 590,  589,  590,  639,  638
 591,  590,  591,  640,  639
 592,  591,  592,  641,  640
 593,  592,  593,  642,  641
 594,  593,  594,  643,  642
 595,  594,  595,  644,  643
 596,  595,  596,  645,  644
 597,  596,  597,  646,  645
 598,  597,  598,  647,  646
 599,  598,  599,  648,  647
 600,  599,  600,  649,  648
 601,  600,  601,  650,  649
 602,  601,  602,  651,  650
 603,  602,  603,  652,  651
 604,  603,  604,  653,  652
 605,  604,  605,  654,  653
 606,  605,  606,  655,  654
 607,  606,  607,  656,  655
 608,  607,  608,  657,  656
 609,  608,  609,  658,  657
 610,  609,  610,  659,  658
 611,  610,  611,  660,  659
 612,  611,  612,  661,  660
 613,  612,  613,  662,  661
 614,  613,  614,  663,  662
 615,  614,  615,  664,  663
 616,  615,  616,  665,  664
 617,  616,  617,  666,  665
 618,  617,  618,  667,  666
 619,  618,  619,  668,  667
 620,  619,  620,  669,  668
 621,  620,  621,  670,  669
 622,  621,  622,  671,  670
 623,  622,  623,  672,  671
 624,  623,  624,  673,  672
 625,  624,  625,  674,  673
 626,  625,  626,  675,  674
 627,  626,  627,  676,  675
 628,  627,  628,  677,  676
 629,  628,  629,  678,  677
 630,  629,  630,  679,  678
 631,  630,  631,  680,  679
 632,  631,  632,  681,  680
 633,  632,  633,  682,  681
 634,  633,  634,  683,  682
 635,  634,  635,  684,  683
 636,  635,  636,  685,  684
 637,  636,  637,  686,  685
 638,  686,  638,  687,  735
 639,  638,  639,  688,  687
 640,  639,  640,  689,  688
 641,  640,  641,  690,  689
 642,  641,  642,  691,  690
 643,  642,  643,  692,  691
 644,  643,  644,  693,  692
 645,  644,  645,  694,  693
 646,  645,  646,  695,  694
 647,  646,  647,  696,  695
 648,  647,  648,  697,  696
 649,  648,  649,  698,  697
 650,  649,  650,  699,  698
 651,  650,  651,  700,  699
 652,  651,  652,  701,  700
 653,  652,  653,  702,  701
 654,  653,  654,  703,  702
 655,  654,  655,  704,  703
 656,  655,  656,  705,  704
 657,  656,  657,  706,  705
 658,  657,  658,  707,  706
 659,  658,  659,  708,  707
 660,  659,  660,  709,  708
 661,  660,  661,  710,  709
 662,  661,  662,  711,  710
 663,  662,  663,  712,  711
 664,  663,  664,  713,  712
 665,  664,  665,  714,  713
 666,  665,  666,  715,  714
 667,  666,  667,  716,  715
 668,  667,  668,  717,  716
 669,  668,  669,  718,  717
 670,  669,  670,  719,  718
 671,  670,  671,  720,  719
 672,  671,  672,  721,  720
 673,  672,  673,  722,  721
 674,  673,  674,  723,  722
 675,  674,  675,  724,  723
 676,  675,  676,  725,  724
 677,  676,  677,  726,  725
 678,  677,  678,  727,  726
 679,  678,  679,  728,  727
 680,  679,  680,  729,  728
 681,  680,  681,  730,  729
 682,  681,  682,  731,  730
 683,  682,  683,  732,  731
 684,  683,  684,  733,  732
 685,  684,  685,  734,  733
 686,  685,  686,  735,  734
 687,  735,  687,  736,  784
 688,  687,  688,  737,  736
 689,  688,  689,  738,  737
 690,  689,  690,  739,  738
 691,  690,  691,  740,  739
 692,  691,  692,  741,  740
 693,  692,  693,  742,  741
 694,  693,  694,  743,  742
 695,  694,  695,  744,  743
 696,  695,  696,  745,  744
 697,  696,  697,  746,  745
 698,  697,  698,  747,  746
 699,  698,  699,  748,  747
 700,  699,  700,  749,  748
 701,  700,  701,  750,  749
 702,  701,  702,  751,  750
 703,  702,  703,  752,  751
 704,  703,  704,  753,  752
 705,  704,  705,  754,  753
 706,  705,  706,  755,  754
 707,  706,  707,  756,  755
 708,  707,  708,  757,  756
 709,  708,  709,  758,  757
 710,  709,  710,  759,  758
 711,  710,  711,  760,  759
 712,  711,  712,  761,  760
 713,  712,  713,  762,  761
 714,  713,  714,  763,  762
 715,  714,  715,  764,  763
 716,  715,  716,  765,  764
 717,  716,  717,  766,  765
 718,  717,  718,  767,  766
 719,  718,  719,  768,  767
 720,  719,  720,  769,  768
 721,  720,  721,  770,  769
 722,  721,  722,  771,  770
 723,  722,  723,  772,  771
 724,  723,  724,  773,  772
 725,  724,  725,  774,  773
 726,  725,  726,  775,  774
 727,  726,  727,  776,  775
 728,  727,  728,  777,  776
 729,  728,  729,  778,  777
 730,  729,  730,  779,  778
 731,  730,  731,  780,  779
 732,  731,  732,  781,  780
 733,  732,  733,  782,  781
 734,  733,  734,  783,  782
 735,  734,  735,  784,  783
 736,  784,  736,  785,  833
 737,  736,  737,  786,  785
 738,  737,  738,  787,  786
 739,  738,  739,  788,  787
 740,  739,  740,  789,  788
 741,  740,  741,  790,  789
 742,  741,  742,  791,  790
 743,  742,  743,  792,  791
 744,  743,  744,  793,  792
 745,  744,  745,  794,  793
 746,  745,  746,  795,  794
 747,  746,  747,  796,  795
 748,  747,  748,  797,  796
 749,  748,  749,  798,  797
 750,  749,  750,  799,  798
 751,  750,  751,  800,  799
 752,  751,  752,  801,  800
 753,  752,  753,  802,  801
 754,  753,  754,  803,  802
 755,  754,  755,  804,  803
 756,  755,  756,  805,  804
 757,  756,  757,  806,  805
 758,  757,  758,  807,  806
 759,  758,  759,  808,  807
 760,  759,  760,  809,  808
 761,  760,  761,  810,  809
 762,  761,  762,  811,  810
 763,  762,  763,  812,  811
 764,  763,  764,  813,  812
 765,  764,  765,  814,  813
 766,  765,  766,  815,  814
 767,  766,  767,  816,  815
 768,  767,  768,  817,  816
 769,  768,  769,  818,  817
 770,  769,  770,  819,  818
 771,  770,  771,  820,  819
 772,  771,  772,  821,  820
 773,  772,  773,  822,  821
 774,  773,  774,  823,  822
 775,  774,  775,  824,  823
 776,  775,  776,  825,  824
 777,  776,  777,  826,  825
 778,  777,  778,  827,  826
 779,  778,  779,  828,  827
 780,  779,  780,  829,  828
 781,  780,  781,  830,  829
 782,  781,  782,  831,  830
 783,  782,  783,  832,  831
 784,  783,  784,  833,  832
 785,  833,  785,  834,  882
 786,  785,  786,  835,  834
 787,  786,  787,  836,  835
 788,  787,  788,  837,  836
 789,  788,  789,  838,  837
 790,  789,  790,  839,  838
 791,  790,  791,  840,  839
 792,  791,  792,  841,  840
 793,  792,  793,  842,  841
 794,  793,  794,  843,  842
 795,  794,  795,  844,  843
 796,  795,  796,  845,  844
 797,  796,  797,  846,  845
 798,  797,  798,  847,  846
 799,  798,  799,  848,  847
 800,  799,  800,  849,  848
 801,  800,  801,  850,  849
 802,  801,  802,  851,  850
 803,  802,  803,  852,  851
 804,  803,  804,  853,  852
 805,  804,  805,  854,  853
 806,  805,  806,  855,  854
 807,  806,  807,  856,  855
 808,  807,  808,  857,  856
 809,  808,  809,  858,  857
 810,  809,  810,  859,  858
 811,  810,  811,  860,  859
 812,  811,  812,  861,  860
 813,  812,  813,  862,  861
 814,  813,  814,  863,  862
 815,  814,  815,  864,  863
 816,  815,  816,  865,  864
 817,  816,  817,  866,  865
 818,  817,  818,  867,  866
 819,  818,  819,  868,  867
 820,  819,  820,  869,  868
 821,  820,  821,  870,  869
 822,  821,  822,  871,  870
 823,  822,  823,  872,  871
 824,  823,  824,  873,  872
 825,  824,  825,  874,  873
 826,  825,  826,  875,  874
 827,  826,  827,  876,  875
 828,  827,  828,  877,  876
 829,  828,  829,  878,  877
 830,  829,  830,  879,  878
 831,  830,  831,  880,  879
 832,  831,  832,  881,  880
 833,  832,  833,  882,  881
 834,  882,  834,  883,  931
 835,  834,  835,  884,  883
 836,  835,  836,  885,  884
 837,  836,  837,  886,  885
 838,  837,  838,  887,  886
 839,  838,  839,  888,  887
 840,  839,  840,  889,  888
 841,  840,  841,  890,  889
 842,  841,  842,  891,  890
 843,  842,  843,  892,  891
 844,  843,  844,  893,  892
 845,  844,  845,  894,  893
 846,  845,  846,  895,  894
 847,  846,  847,  896,  895
 848,  847,  848,  897,  896
 849,  848,  849,  898,  897
 850,  849,  850,  899,  898
 851,  850,  851,  900,  899
 852,  851,  852,  901,  900
 853,  852,  853,  902,  901
 854,  853,  854,  903,  902
 855,  854,  855,  904,  903
 856,  855,  856,  905,  904
 857,  856,  857,  906,  905
 858,  857,  858,  907,  906
 859,  858,  859,  908,  907
 860,  859,  860,  909,  908
 861,  860,  861,  910,  909
 862,  861,  862,  911,  910
 863,  862,  863,  912,  911
 864,  863,  864,  913,  912
 865,  864,  865,  914,  913
 866,  865,  866,  915,  914
 867,  866,  867,  916,  915
 868,  867,  868,  917,  916
 869,  868,  869,  918,  917
 870,  869,  870,  919,  918
 871,  870,  871,  920,  919
 872,  871,  872,  921,  920
 873,  872,  873,  922,  921
 874,  873,  874,  923,  922
 875,  874,  875,  924,  923
 876,  875,  876,  925,  924
 877,  876,  877,  926,  925
 878,  877,  878,  927,  926
 879,  878,  879,  928,  927
 880,  879,  880,  929,  928
 881,  880,  881,  930,  929
 882,  881,  882,  931,  930
 883,  931,  883,  932,  980
 884,  883,  884,  933,  932
 885,  884,  885,  934,  933
 886,  885,  886,  935,  934
 887,  886,  887,  936,  935
 888,  887,  888,  937,  936
 889,  888,  889,  938,  937
 890,  889,  890,  939,  938
 891,  890,  891,  940,  939
 892,  891,  892,  941,  940
 893,  892,  893,  942,  941
 894,  893,  894,  943,  942
 895,  894,  895,  944,  943
 896,  895,  896,  945,  944
 897,  896,  897,  946,  945
 898,  897,  898,  947,  946
 899,  898,  899,  948,  947
 900,  899,  900,  949,  948
 901,  900,  901,  950,  949
 902,  901,  902,  951,  950
 903,  902,  903,  952,  951
 904,  903,  904,  953,  952
 905,  904,  905,  954,  953
 906,  905,  906,  955,  954
 907,  906,  907,  956,  955
 908,  907,  908,  957,  956
 909,  908,  909,  958,  957
 910,  909,  910,  959,  958
 911,  910,  911,  960,  959
 912,  911,  912,  961,  960
 913,  912,  913,  962,  961
 914,  913,  914,  963,  962
 915,  914,  915,  964,  963
 916,  915,  916,  965,  964
 917,  916,  917,  966,  965
 918,  917,  918,  967,  966
 919,  918,  919,  968,  967
 920,  919,  920,  969,  968
 921,  920,  921,  970,  969
 922,  921,  922,  971,  970
 923,  922,  923,  972,  971
 924,  923,  924,  973,  972
 925,  924,  925,  974,  973
 926,  925,  926,  975,  974
 927,  926,  927,  976,  975
 928,  927,  928,  977,  976
 929,  928,  929,  978,  977
 930,  929,  930,  979,  978
 931,  930,  931,  980,  979
 932,  980,  932,  981, 1029
 933,  932,  933,  982,  981
 934,  933,  934,  983,  982
 935,  934,  935,  984,  983
 936,  935,  936,  985,  984
 937,  936,  937,  986,  985
 938,  937,  938,  987,  986
 939,  938,  939,  988,  987
 940,  939,  940,  989,  988
 941,  940,  941,  990,  989
 942,  941,  942,  991,  990
 943,  942,  943,  992,  991
 944,  943,  944,  993,  992
 945,  944,  945,  994,  993
 946,  945,  946,  995,  994
 947,  946,  947,  996,  995
 948,  947,  948,  997,  996
 949,  948,  949,  998,  997
 950,  949,  950,  999,  998
 951,  950,  951, 1000,  999
 952,  951,  952, 1001, 1000
 953,  952,  953, 1002, 1001
 954,  953,  954, 1003, 1002
 955,  954,  955, 1004, 1003
 956,  955,  956, 1005, 1004
 957,  956,  957, 1006, 1005
 958,  957,  958, 1007, 1006
 959,  958,  959, 1008, 1007
 960,  959,  960, 1009, 1008
 961,  960,  961, 1010, 1009
 962,  961,  962, 1011, 1010
 963,  962,  963, 1012, 1011
 964,  963,  964, 1013, 1012
 965,  964,  965, 1014, 1013
 966,  965,  966, 1015, 1014
 967,  966,  967, 1016, 1015
 968,  967,  968, 1017, 1016
 969,  968,  969, 1018, 1017
 970,  969,  970, 1019, 1018
 971,  970,  971, 1020, 1019
 972,  971,  972, 1021, 1020
 973,  972,  973, 1022, 1021
 974,  973,  974, 1023, 1022
 975,  974,  975, 1024, 1023
 976,  975,  976, 1025, 1024
 977,  976,  977, 1026, 1025
 978,  977,  978, 1027, 1026
 979,  978,  979, 1028, 1027
 980,  979,  980, 1029, 1028
 981, 1029,  981, 1030, 1078
 982,  981,  982, 1031, 1030
 983,  982,  983, 1032, 1031
 984,  983,  984, 1033, 1032
 985,  984,  985, 1034, 1033
 986,  985,  986, 1035, 1034
 987,  986,  987, 1036, 1035
 988,  987,  988, 1037, 1036
 989,  988,  989, 1038, 1037
 990,  989,  990, 1039, 1038
 991,  990,  991, 1040, 1039
 992,  991,  992, 1041, 1040
 993,  992,  993, 1042, 1041
 994,  993,  994, 1043, 1042
 995,  994,  995, 1044, 1043
 996,  995,  996, 1045, 1044
 997,  996,  997, 1046, 1045
 998,  997,  998, 1047, 1046
 999,  998,  999, 1048, 1047
1000,  999, 1000, 1049, 1048
1001, 1000, 1001, 1050, 1049
1002, 1001, 1002, 1051, 1050
1003, 1002, 1003, 1052, 1051
1004, 1003, 1004, 1053, 1052
1005, 1004, 1005, 1054, 1053
1006, 1005, 1006, 1055, 1054
1007, 1006, 1007, 1056, 1055
1008, 1007, 1008, 1057, 1056
1009, 1008, 1009, 1058, 1057
1010, 1009, 1010, 1059, 1058
1011, 1010, 1011, 1060, 1059
1012, 1011, 1012, 1061, 1060
1013, 1012, 1013, 1062, 1061
1014, 1013, 1014, 1063, 1062
1015, 1014, 1015, 1064, 1063
1016, 1015, 1016, 1065, 1064
1017, 1016, 1017, 1066, 1065
1018, 1017, 1018, 1067, 1066
1019, 1018, 1019, 1068, 1067
1020, 1019, 1020, 1069, 1068
1021, 1020, 1021, 1070, 1069
1022, 1021, 1022, 1071, 1070
1023, 1022, 1023, 1072, 1071
1024, 1023, 1024, 1073, 1072
1025, 1024, 1025, 1074, 1073
1026, 1025, 1026, 1075, 1074
1027, 1026, 1027, 1076, 1075
1028, 1027, 1028, 1077, 1076
1029, 1028, 1029, 1078, 1077
1030, 1078, 1030, 1079, 1127
1031, 1030, 1031, 1080, 1079
1032, 1031, 1032, 1081, 1080
1033, 1032, 1033, 1082, 1081
1034, 1033, 1034, 1083, 1082
1035, 1034, 1035, 1084, 1083
1036, 1035, 1036, 1085, 1084
1037, 1036, 1037, 1086, 1085
1038, 1037, 1038, 1087, 1086
1039, 1038, 1039, 1088, 1087
1040, 1039, 1040, 1089, 1088
1041, 1040, 1041, 1090, 1089
1042, 1041, 1042, 1091, 1090
1043, 1042, 1043, 1092, 1091
1044, 1043, 1044, 1093, 1092
1045, 1044, 1045, 1094, 1093
1046, 1045, 1046, 1095, 1094
1047, 1046, 1047, 1096, 1095
1048, 1047, 1048, 1097, 1096
1049, 1048, 1049, 1098, 1097
1050, 1049, 1050, 1099, 1098
1051, 1050, 1051, 1100, 1099
1052, 1051, 1052, 1101, 1100
1053, 1052, 1053, 1102, 1101
1054, 1053, 1054, 1103, 1102
1055, 1054, 1055, 1104, 1103
1056, 1055, 1056, 1105, 1104
1057, 1056, 1057, 1106, 1105
1058, 1057, 1058, 1107, 1106
1059, 1058, 1059, 1108, 1107
1060, 1059, 1060, 1109, 1108
1061, 1060, 1061, 1110, 1109
1062, 1061, 1062, 1111, 1110
1063, 1062, 1063, 1112, 1111
1064, 1063, 1064, 1113, 1112
1065, 1064, 1065, 1114, 1113
1066, 1065, 1066, 1115, 1114
1067, 1066, 1067, 1116, 1115
1068, 1067, 1068, 1117, 1116
1069, 1068, 1069, 1118, 1117
1070, 1069, 1070, 1119, 1118
1071, 1070, 1071, 1120, 1119
1072, 1071, 1072, 1121, 1120
1073, 1072, 1073, 1122, 1121
1074, 1073, 1074, 1123, 1122
1075, 1074, 1075, 1124, 1123
1076, 1075, 1076, 1125, 1124
1077, 1076, 1077, 1126, 1125
1078, 1077, 1078, 1127, 1126
1079, 1127, 1079, 1128, 1176
1080, 1079, 1080, 1129, 1128
1081, 1080, 1081, 1130, 1129
1082, 1081, 1082, 1131, 1130
1083, 1082, 1083, 1132, 1131
1084, 1083, 1084, 1133, 1132
1085, 1084, 1085, 1134, 1133
1086, 1085, 1086, 1135, 1134
1087, 1086, 1087, 1136, 1135
1088, 1087, 1088, 1137, 1136
1089, 1088, 1089, 1138, 1137
1090, 1089, 1090, 1139, 1138
1091, 1090, 1091, 1140, 1139
1092, 1091, 1092, 1141, 1140
1093, 1092, 1093, 1142, 1141
1094, 1093, 1094, 1143, 1142
1095, 1094, 1095, 1144, 1143
1096, 1095, 1096, 1145, 1144
1097, 1096, 1097, 1146, 1145
1098, 1097, 1098, 1147, 1146
1099, 1098, 1099, 1148, 1147
1100, 1099, 1100, 1149, 1148
1101, 1100, 1101, 1150, 1149
1102, 1101, 1102, 1151, 1150
1103, 1102, 1103, 1152, 1151
1104, 1103, 1104, 1153, 1152
1105, 1104, 1105, 1154, 1153
1106, 1105, 1106, 1155, 1154
1107, 1106, 1107, 1156, 1155
1108, 1107, 1108, 1157, 1156
1109, 1108, 1109, 1158, 1157
1110, 1109, 1110, 1159, 1158
1111, 1110, 1111, 1160, 1159
1112, 1111, 1112, 1161, 1160
1113, 1112, 1113, 1162, 1161
1114, 1113, 1114, 1163, 1162
1115, 1114, 1115, 1164, 1163
1116, 1115, 1116, 1165, 1164
1117, 1116, 1117, 1166, 1165
1118, 1117, 1118, 1167, 1166
1119, 1118, 1119, 1168, 1167
1120, 1119, 1120, 1169, 1168
1121, 1120, 1121, 1170, 1169
1122, 1121, 1122, 1171, 1170
1123, 1122, 1123, 1172, 1171
1124, 1123, 1124, 1173, 1172
1125, 1124, 1125, 1174, 1173
1126, 1125, 1126, 1175, 1174
1127, 1126, 1127, 1176, 1175
1128, 1176, 1128, 1177, 1225
1129, 1128, 1129, 1178, 1177
1130, 1129, 1130, 1179, 1178
1131, 1130, 1131, 1180, 1179
1132, 1131, 1132, 1181, 1180
1133, 1132, 1133, 1182, 1181
1134, 1133, 1134, 1183, 1182
1135, 1134, 1135, 1184, 1183
1136, 1135, 1136, 1185, 1184
1137, 1136, 1137, 1186, 1185
1138, 1137, 1138, 1187, 1186
1139, 1138, 1139, 1188, 1187
1140, 1139, 1140, 1189, 1188
1141, 1140, 1141, 1190, 1189
1142, 1141, 1142, 1191, 1190
1143, 1142, 1143, 1192, 1191
1144, 1143, 1144, 1193, 1192
1145, 1144, 1145, 1194, 1193
1146, 1145, 1146, 1195, 1194
1147, 1146, 1147, 1196, 1195
1148, 1147, 1148, 1197, 1196
1149, 1148, 1149, 1198, 1197
1150, 1149, 1150, 1199, 1198
1151, 1150, 1151, 1200, 1199
1152, 1151, 1152, 1201, 1200
1153, 1152, 1153, 1202, 1201
1154, 1153, 1154, 1203, 1202
1155, 1154, 1155, 1204, 1203
1156, 1155, 1156, 1205, 1204
1157, 1156, 1157, 1206, 1205
1158, 1157, 1158, 1207, 1206
1159, 1158, 1159, 1208, 1207
1160, 1159, 1160, 1209, 1208
1161, 1160, 1161, 1210, 1209
1162, 1161, 1162, 1211, 1210
1163, 1162, 1163, 1212, 1211
1164, 1163, 1164, 1213, 1212
1165, 1164, 1165, 1214, 1213
1166, 1165, 1166, 1215, 1214
1167, 1166, 1167, 1216, 1215
1168, 1167, 1168, 1217, 1216
1169, 1168, 1169, 1218, 1217
1170, 1169, 1170, 1219, 1218
1171, 1170, 1171, 1220, 1219
1172, 1171, 1172, 1221, 1220
1173, 1172, 1173, 1222, 1221
1174, 1173, 1174, 1223, 1222
1175, 1174, 1175, 1224, 1223
1176, 1175, 1176, 1225, 1224
1177, 1225, 1177, 1226, 1274
1178, 1177, 1178, 1227, 1226
1179, 1178, 1179, 1228, 1227
1180, 1179, 1180, 1229, 1228
1181, 1180, 1181, 1230, 1229
1182, 1181, 1182, 1231, 1230
1183, 1182, 1183, 1232, 1231
1184, 1183, 1184, 1233, 1232
1185, 1184, 1185, 1234, 1233
1186, 1185, 1186, 1235, 1234
1187, 1186, 1187, 1236, 1235
1188, 1187, 1188, 1237, 1236
1189, 1188, 1189, 1238, 1237
1190, 1189, 1190, 1239, 1238
1191, 1190, 1191, 1240, 1239
1192, 1191, 1192, 1241, 1240
1193, 1192, 1193, 1242, 1241
1194, 1193, 1194, 1243, 1242
1195, 1194, 1195, 1244, 1243
1196, 1195, 1196, 1245, 1244
1197, 1196, 1197, 1246, 1245
1198, 1197, 1198, 1247, 1246
1199, 1198, 1199, 1248, 1247
1200, 1199, 1200, 1249, 1248
1201, 1200, 1201, 1250, 1249
1202, 1201, 1202, 1251, 1250
1203, 1202, 1203, 1252, 1251
1204, 1203, 1204, 1253, 1252
1205, 1204, 1205, 1254, 1253
1206, 1205, 1206, 1255, 1254
1207, 1206, 1207, 1256, 1255
1208, 1207, 1208, 1257, 1256
1209, 1208, 1209, 1258, 1257
1210, 1209, 1210, 1259, 1258
1211, 1210, 1211, 1260, 1259
1212, 1211, 1212, 1261, 1260
1213, 1212, 1213, 1262, 1261
1214, 1213, 1214, 1263, 1262
1215, 1214, 1215, 1264, 1263
1216, 1215, 1216, 1265, 1264
1217, 1216, 1217, 1266, 1265
1218, 1217, 1218, 1267, 1266
1219, 1218, 1219, 1268, 1267
1220, 1219, 1220, 1269, 1268
1221, 1220, 1221, 1270, 1269
1222, 1221, 1222, 1271, 1270
1223, 1222, 1223, 1272, 1271
1224, 1223, 1224, 1273, 1272
1225, 1224, 1225, 1274, 1273
1226, 1274, 1226, 1275, 1323
1227, 1226, 1227, 1276, 1275
1228, 1227, 1228, 1277, 1276
1229, 1228, 1229, 1278, 1277
1230, 1229, 1230, 1279, 1278
1231, 1230, 1231, 1280, 1279
1232, 1231, 1232, 1281, 1280
1233, 1232, 1233, 1282, 1281
1234, 1233, 1234, 1283, 1282
1235, 1234, 1235, 1284, 1283
1236, 1235, 1236, 1285, 1284
1237, 1236, 1237, 1286, 1285
1238, 1237, 1238, 1287, 1286
1239, 1238, 1239, 1288, 1287
1240, 1239, 1240, 1289, 1288
1241, 1240, 1241, 1290, 1289
1242, 1241, 1242, 1291, 1290
1243, 1242, 1243, 1292, 1291
1244, 1243, 1244, 1293, 1292
1245, 1244, 1245, 1294, 1293
1246, 1245, 1246, 1295, 1294
1247, 1246, 1247, 1296, 1295
1248, 1247, 1248, 1297, 1296
1249, 1248, 1249, 1298, 1297
1250, 1249, 1250, 1299, 1298
1251, 1250, 1251, 1300, 1299
1252, 1251, 1252, 1301, 1300
1253, 1252, 1253, 1302, 1301
1254, 1253, 1254, 1303, 1302
1255, 1254, 1255, 1304, 1303
1256, 1255, 1256, 1305, 1304
1257, 1256, 1257, 1306, 1305
1258, 1257, 1258, 1307, 1306
1259, 1258, 1259, 1308, 1307
1260, 1259, 1260, 1309, 1308
1261, 1260, 1261, 1310, 1309
1262, 1261, 1262, 1311, 1310
1263, 1262, 1263, 1312, 1311
1264, 1263, 1264, 1313, 1312
1265, 1264, 1265, 1314, 1313
1266, 1265, 1266, 1315, 1314
1267, 1266, 1267, 1316, 1315
1268, 1267, 1268, 1317, 1316
1269, 1268, 1269, 1318, 1317
1270, 1269, 1270, 1319, 1318
1271, 1270, 1271, 1320, 1319
1272, 1271, 1272, 1321, 1320
1273, 1272, 1273, 1322, 1321
1274, 1273, 1274, 1323, 1322
1275, 1323, 1275, 1324, 1372
1276, 1275, 1276, 1325, 1324
1277, 1276, 1277, 1326, 1325
1278, 1277, 1278, 1327, 1326
1279, 1278, 1279, 1328, 1327
1280, 1279, 1280, 1329, 1328
1281, 1280, 1281, 1330, 1329
1282, 1281, 1282, 1331, 1330
1283, 1282, 1283, 1332, 1331
1284, 1283, 1284, 1333, 1332
1285, 1284, 1285, 1334, 1333
1286, 1285, 1286, 1335, 1334
1287, 1286, 1287, 1336, 1335
1288, 1287, 1288, 1337, 1336
1289, 1288, 1289, 1338, 1337
1290, 1289, 1290, 1339, 1338
1291, 1290, 1291, 1340, 1339
1292, 1291, 1292, 1341, 1340
1293, 1292, 1293, 1342, 1341
1294, 1293, 1294, 1343, 1342
1295, 1294, 1295, 1344, 1343
1296, 1295, 1296, 1345, 1344
1297, 1296, 1297, 1346, 1345
1298, 1297, 1298, 1347, 1346
1299, 1298, 1299, 1348, 1347
1300, 1299, 1300, 1349, 1348
1301, 1300, 1301, 1350, 1349
1302, 1301, 1302, 1351, 1350
1303, 1302, 1303, 1352, 1351
1304, 1303, 1304, 1353, 1352
1305, 1304, 1305, 1354, 1353
1306, 1305, 1306, 1355, 1354
1307, 1306, 1307, 1356, 1355
1308, 1307, 1308, 1357, 1356
1309, 1308, 1309, 1358, 1357
1310, 1309, 1310, 1359, 1358
1311, 1310, 1311, 1360, 1359
1312, 1311, 1312, 1361, 1360
1313, 1312, 1313, 1362, 1361
1314, 1313, 1314, 1363, 1362
1315, 1314, 1315, 1364, 1363
1316, 1315, 1316, 1365, 1364
1317, 1316, 1317, 1366, 1365
1318, 1317, 1318, 1367, 1366
1319, 1318, 1319, 1368, 1367
1320, 1319, 1320, 1369, 1368
1321, 1320, 1321, 1370, 1369
1322, 1321, 1322, 1371, 1370
1323, 1322, 1323, 1372, 1371
1324, 1372, 1324, 1373, 1421
1325, 1324, 1325, 1374, 1373
1326, 1325, 1326, 1375, 1374
1327, 1326, 1327, 1376, 1375
1328, 1327, 1328, 1377, 1376
1329, 1328, 1329, 1378, 1377
1330, 1329, 1330, 1379, 1378
1331, 1330, 1331, 1380, 1379
1332, 1331, 1332, 1381, 1380
1333, 1332, 1333, 1382, 1381
1334, 1333, 1334, 1383, 1382
1335, 1334, 1335, 1384, 1383
1336, 1335, 1336, 1385, 1384
1337, 1336, 1337, 1386, 1385
1338, 1337, 1338, 1387, 1386
1339, 1338, 1339, 1388, 1387
1340, 1339, 1340, 1389, 1388
1341, 1340, 1341, 1390, 1389
1342, 1341, 1342, 1391, 1390
1343, 1342, 1343, 1392, 1391
1344, 1343, 1344, 1393, 1392
1345, 1344, 1345, 1394, 1393
1346, 1345, 1346, 1395, 1394
1347, 1346, 1347, 1396, 1395
1348, 1347, 1348, 1397, 1396
1349, 1348, 1349, 1398, 1397
1350, 1349, 1350, 1399, 1398
1351, 1350, 1351, 1400, 1399
1352, 1351, 1352, 1401, 1400
1353, 1352, 1353, 1402, 1401
1354, 1353, 1354, 1403, 1402
1355, 1354, 1355, 1404, 1403
1356, 1355, 1356, 1405, 1404
1357, 1356, 1357, 1406, 1405
1358, 1357, 1358, 1407, 1406
1359, 1358, 1359, 1408, 1407
1360, 1359, 1360, 1409, 1408
1361, 1360, 1361, 1410, 1409
1362, 1361, 1362, 1411, 1410
1363, 1362, 1363, 1412, 1411
1364, 1363, 1364, 1413, 1412
1365, 1364, 1365, 1414, 1413
1366, 1365, 1366, 1415, 1414
1367, 1366, 1367, 1416, 1415
1368, 1367, 1368, 1417, 1416
1369, 1368, 1369, 1418, 1417
1370, 1369, 1370, 1419, 1418
1371, 1370, 1371, 1420, 1419
1372, 1371, 1372, 1421, 1420
1373, 1421, 1373, 1422, 1470
1374, 1373, 1374, 1423, 1422
1375, 1374, 1375, 1424, 1423
1376, 1375, 1376, 1425, 1424
1377, 1376, 1377, 1426, 1425
1378, 1377, 1378, 1427, 1426
1379, 1378, 1379, 1428, 1427
1380, 1379, 1380, 1429, 1428
1381, 1380, 1381, 1430, 1429
1382, 1381, 1382, 1431, 1430
1383, 1382, 1383, 1432, 1431
1384, 1383, 1384, 1433, 1432
1385, 1384, 1385, 1434, 1433
1386, 1385, 1386, 1435, 1434
1387, 1386, 1387, 1436, 1435
1388, 1387, 1388, 1437, 1436
1389, 1388, 1389, 1438, 1437
1390, 1389, 1390, 1439, 1438
1391, 1390, 1391, 1440, 1439
1392, 1391, 1392, 1441, 1440
1393, 1392, 1393, 1442, 1441
1394, 1393, 1394, 1443, 1442
1395, 1394, 1395, 1444, 1443
1396, 1395, 1396, 1445, 1444
1397, 1396, 1397, 1446, 1445
1398, 1397, 1398, 1447, 1446
1399, 1398, 1399, 1448, 1447
1400, 1399, 1400, 1449, 1448
1401, 1400, 1401, 1450, 1449
1402, 1401, 1402, 1451, 1450
1403, 1402, 1403, 1452, 1451
1404, 1403, 1404, 1453, 1452
1405, 1404, 1405, 1454, 1453
1406, 1405, 1406, 1455, 1454
1407, 1406, 1407, 1456, 1455
1408, 1407, 1408, 1457, 1456
1409, 1408, 1409, 1458, 1457
1410, 1409, 1410, 1459, 1458
1411, 1410, 1411, 1460, 1459
1412, 1411, 1412, 1461, 1460
1413, 1412, 1413, 1462, 1461
1414, 1413, 1414, 1463, 1462
1415, 1414, 1415, 1464, 1463
1416, 1415, 1416, 1465, 1464
1417, 1416, 1417, 1466, 1465
1418, 1417, 1418, 1467, 1466
1419, 1418, 1419, 1468, 1467
1420, 1419, 1420, 1469, 1468
1421, 1420, 1421, 1470, 1469
1422, 1470, 1422, 1471, 1519
1423, 1422, 1423, 1472, 1471
1424, 1423, 1424, 1473, 1472
1425, 1424, 1425, 1474, 1473
1426, 1425, 1426, 1475, 1474
1427, 1426, 1427, 1476, 1475
1428, 1427, 1428, 1477, 1476
1429, 1428, 1429, 1478, 1477
1430, 1429, 1430, 1479, 1478
1431, 1430, 1431, 1480, 1479
1432, 1431, 1432, 1481, 1480
1433, 1432, 1433, 1482, 1481
1434, 1433, 1434, 1483, 1482
1435, 1434, 1435, 1484, 1483
1436, 1435, 1436, 1485, 1484
1437, 1436, 1437, 1486, 1485
1438, 1437, 1438, 1487, 1486
1439, 1438, 1439, 1488, 1487
1440, 1439, 1440, 1489, 1488
1441, 1440, 1441, 1490, 1489
1442, 1441, 1442, 1491, 1490
1443, 1442, 1443, 1492, 1491
1444, 1443, 1444, 1493, 1492
1445, 1444, 1445, 1494, 1493
1446, 1445, 1446, 1495, 1494
1447, 1446, 1447, 1496, 1495
1448, 1447, 1448, 1497, 1496
1449, 1448, 1449, 1498, 1497
1450, 1449, 1450, 1499, 1498
1451, 1450, 1451, 1500, 1499
1452, 1451, 1452, 1501, 1500
1453, 1452, 1453, 1502, 1501
1454, 1453, 1454, 1503, 1502
1455, 1454, 1455, 1504, 1503
1456, 1455, 1456, 1505, 1504
1457, 1456, 1457, 1506, 1505
1458, 1457, 1458, 1507, 1506
1459, 1458, 1459, 1508, 1507
1460, 1459, 1460, 1509, 1508
1461, 1460, 1461, 1510, 1509
1462, 1461, 1462, 1511, 1510
1463, 1462, 1463, 1512, 1511
1464, 1463, 1464, 1513, 1512
1465, 1464, 1465, 1514, 1513
1466, 1465, 1466, 1515, 1514
1467, 1466, 1467, 1516, 1515
1468, 1467, 1468, 1517, 1516
1469, 1468, 1469, 1518, 1517
1470, 1469, 1470, 1519, 1518
*Orientation, name=Ori-1
1., 0., 0., 0., 1., 0.
1, 0.
** Region: (CompositeLayup-1-1: Generated From Layup)
*Elset, elset=CompositeLayup-1-1, generate
    1,  1470,     1
** Section: CompositeLayup-1-1
*Shell Section, elset=CompositeLayup-1-1, composite, orientation=Ori-1, density=0., layup=CompositeLayup-1
0.417975, 3, Composite, 30.161, Ply-1
0.417975, 3, Composite, -30.161, Ply-2
0.417975, 3, Composite, 75.841, Ply-3
0.417975, 3, Composite, -75.841, Ply-4
0.417975, 3, Composite, 30.161, Ply-5
0.417975, 3, Composite, -30.161, Ply-6
0.417975, 3, Composite, 75.841, Ply-7
0.417975, 3, Composite, -75.841, Ply-8
0.417975, 3, Composite, 30.161, Ply-9
0.417975, 3, Composite, -30.161, Ply-10
0.417975, 3, Composite, 75.841, Ply-11
0.417975, 3, Composite, -75.841, Ply-12
0.417975, 3, Composite, 30.161, Ply-13
0.417975, 3, Composite, -30.161, Ply-14
0.417975, 3, Composite, 75.841, Ply-15
0.417975, 3, Composite, -75.841, Ply-16
0.417975, 3, Composite, 30.161, Ply-17
0.417975, 3, Composite, -30.161, Ply-18
0.417975, 3, Composite, 75.841, Ply-19
0.417975, 3, Composite, -75.841, Ply-20
0.417975, 3, Composite, 30.161, Ply-21
0.417975, 3, Composite, -30.161, Ply-22
0.417975, 3, Composite, 75.841, Ply-23
0.417975, 3, Composite, -75.841, Ply-24
0.417975, 3, Composite, 30.161, Ply-25
0.417975, 3, Composite, -30.161, Ply-26
0.417975, 3, Composite, 75.841, Ply-27
0.417975, 3, Composite, -75.841, Ply-28
0.417975, 3, Composite, 30.161, Ply-29
0.417975, 3, Composite, -30.161, Ply-30
0.417975, 3, Composite, 75.841, Ply-31
0.417975, 3, Composite, -75.841, Ply-32
0.417975, 3, Composite, 30.161, Ply-33
0.417975, 3, Composite, -30.161, Ply-34
0.417975, 3, Composite, 75.841, Ply-35
0.417975, 3, Composite, -75.841, Ply-36
0.417975, 3, Composite, 30.161, Ply-37
0.417975, 3, Composite, -30.161, Ply-38
0.417975, 3, Composite, 75.841, Ply-39
0.417975, 3, Composite, -75.841, Ply-40
*End Part
**
**
** ASSEMBLY
**
*Assembly, name=Assembly
**
*Instance, name=CompositeHull-1, part=CompositeHull
*End Instance
**
*Nset, nset=_PickedSet5, internal, instance=CompositeHull-1, generate
  1,  49,   1
*Elset, elset=_PickedSet5, internal, instance=CompositeHull-1, generate
  1,  49,   1
*Nset, nset=_PickedSet6, internal, instance=CompositeHull-1, generate
 1471,  1519,     1
*Elset, elset=_PickedSet6, internal, instance=CompositeHull-1, generate
 1422,  1470,     1
*Elset, elset=__PickedSurf4_SPOS, internal, instance=CompositeHull-1, generate
    1,  1470,     1
*Surface, type=ELEMENT, name=_PickedSurf4, internal
__PickedSurf4_SPOS, SPOS
*End Assembly
**
** MATERIALS
**
*Material, name=Composite
*Density
 1.58e-09,
*Elastic, type=LAMINA
147000.,9320.,  0.3,4530.,4530.,3624.
*Fail Stress
2820.,1538., 60.2, 190., 125.,   0.,   0.
**
** BOUNDARY CONDITIONS
**
** Name: BC-End-0 Type: �Գ�/���Գ�/��ȫ�̶�
*Boundary
_PickedSet5, ENCASTRE
** Name: BC-End-1 Type: �Գ�/���Գ�/��ȫ�̶�
*Boundary
_PickedSet6, ENCASTRE
** ----------------------------------------------------------------
**
** STEP: Step-1
**
*Step, name=Step-1, nlgeom=NO, perturbation
*Buckle
8, , 12, 300
**
** BOUNDARY CONDITIONS
**
** Name: BC-End-0 Type: �Գ�/���Գ�/��ȫ�̶�
*Boundary, op=NEW, load case=1
_PickedSet5, ENCASTRE
*Boundary, op=NEW, load case=2
_PickedSet5, ENCASTRE
** Name: BC-End-1 Type: �Գ�/���Գ�/��ȫ�̶�
*Boundary, op=NEW, load case=1
_PickedSet6, ENCASTRE
*Boundary, op=NEW, load case=2
_PickedSet6, ENCASTRE
**
** LOADS
**
** Name: ExternalPressure   Type: Pressure
*Dsload
_PickedSurf4, P, 1.
**
** OUTPUT REQUESTS
**
*Restart, write, frequency=0
**
** FIELD OUTPUT: F-Output-1
**
*Output, field, variable=PRESELECT
*Node File
U
*End Step
