*Heading
 CSDM_cph pressure hull linear buckling
** Job name: C8 Model name: CPH_Model
** Generated by: Abaqus/CAE 2023
*Preprint, echo=NO, model=NO, history=NO, contact=NO
**
** PARTS
**
*Part, name=CompositeHull
*Node
      1,   157.793976,           0.,  -15.7896681
      2,   155.437714,           0.,   -31.422411
      3,   151.536652,           0.,  -46.7428665
      4,   146.129547,           0.,  -61.5987663
      5,   139.270126,           0.,  -75.8424759
      6,   131.026596,           0.,  -89.3324203
      7,   121.480858,           0.,  -101.934547
      8,   110.727791,           0.,  -113.523598
      9,   98.8742599,           0.,  -123.984398
     10,   86.0380707,           0.,  -133.212997
     11,   72.3468018,           0.,  -141.117645
     12,    57.936512,           0.,  -147.619827
     13,   42.9504242,           0.,  -152.654877
     14,   27.5374756,           0.,  -156.172791
     15,   11.8508472,           0.,  -158.138565
     16,  -3.95355892,           0.,  -158.532715
     17,  -19.7186737,           0.,  -157.351273
     18,  -35.2878151,           0.,  -154.606018
     19,  -50.5062485,           0.,  -150.324219
     20,  -65.2227325,           0.,  -144.548416
     21,  -79.2910004,           0.,  -137.336044
     22,  -92.5712357,           0.,  -128.758759
     23,  -104.931465,           0.,  -118.901802
     24,  -116.248833,           0.,  -107.863152
     25,  -126.410866,           0.,  -95.7525101
     26,  -135.316574,           0.,   -82.690239
     27,  -142.877441,           0.,  -68.8061523
     28,  -149.018341,           0.,  -54.2382393
     29,  -153.678207,           0.,  -39.1312828
     30,  -156.810776,           0.,  -23.6354198
     31,  -158.384872,           0.,  -7.90466022
     32,  -158.384872,           0.,   7.90466022
     33,  -156.810776,           0.,   23.6354198
     34,  -153.678207,           0.,   39.1312828
     35,  -149.018341,           0.,   54.2382393
     36,  -142.877441,           0.,   68.8061523
     37,  -135.316574,           0.,    82.690239
     38,  -126.410866,           0.,   95.7525101
     39,  -116.248833,           0.,   107.863152
     40,  -104.931465,           0.,   118.901802
     41,  -92.5712357,           0.,   128.758759
     42,  -79.2910004,           0.,   137.336044
     43,  -65.2227325,           0.,   144.548416
     44,  -50.5062485,           0.,   150.324219
     45,  -35.2878151,           0.,   154.606018
     46,  -19.7186737,           0.,   157.351273
     47,  -3.95355892,           0.,   158.532715
     48,   11.8508472,           0.,   158.138565
     49,   27.5374756,           0.,   156.172791
     50,   42.9504242,           0.,   152.654877
     51,    57.936512,           0.,   147.619827
     52,   72.3468018,           0.,   141.117645
     53,   86.0380707,           0.,   133.212997
     54,   98.8742599,           0.,   123.984398
     55,   110.727791,           0.,   113.523598
     56,   121.480858,           0.,   101.934547
     57,   131.026596,           0.,   89.3324203
     58,   139.270126,           0.,   75.8424759
     59,   146.129547,           0.,   61.5987663
     60,   151.536652,           0.,   46.7428665
     61,   155.437714,           0.,    31.422411
     62,   157.793976,           0.,   15.7896681
     63,   158.582001,           0.,           0.
     64,   157.793976,   15.9249334,  -15.7896671
     65,   155.437714,   15.9249334,   -31.422411
     66,   151.536652,   15.9249334,  -46.7428665
     67,   146.129547,   15.9249334,  -61.5987625
     68,   139.270126,   15.9249334,  -75.8424759
     69,   131.026596,   15.9249334,  -89.3324203
     70,   121.480858,   15.9249334,  -101.934547
     71,   110.727791,   15.9249334,  -113.523598
     72,   98.8742599,   15.9249334,  -123.984398
     73,   86.0380707,   15.9249334,  -133.212997
     74,   72.3468018,   15.9249334,  -141.117645
     75,   57.9365082,   15.9249334,  -147.619827
     76,   42.9504242,   15.9249334,  -152.654877
     77,   27.5374737,   15.9249334,  -156.172791
     78,   11.8508482,   15.9249334,  -158.138565
     79,  -3.95355868,   15.9249334,  -158.532715
     80,  -19.7186737,   15.9249334,  -157.351273
     81,  -35.2878151,   15.9249334,  -154.606018
     82,  -50.5062485,   15.9249334,  -150.324219
     83,  -65.2227325,   15.9249334,  -144.548416
     84,  -79.2910004,   15.9249334,  -137.336044
     85,  -92.5712357,   15.9249334,  -128.758759
     86,  -104.931465,   15.9249334,  -118.901802
     87,  -116.248833,   15.9249334,  -107.863152
     88,  -126.410866,   15.9249334,  -95.7525101
     89,  -135.316574,   15.9249334,   -82.690239
     90,  -142.877441,   15.9249334,  -68.8061523
     91,  -149.018341,   15.9249334,  -54.2382355
     92,  -153.678207,   15.9249334,  -39.1312828
     93,  -156.810776,   15.9249334,  -23.6354198
     94,  -158.384872,   15.9249334,  -7.90466022
     95,  -158.384872,   15.9249334,   7.90466022
     96,  -156.810776,   15.9249334,   23.6354198
     97,  -153.678207,   15.9249334,   39.1312828
     98,  -149.018341,   15.9249334,   54.2382355
     99,  -142.877441,   15.9249334,   68.8061523
    100,  -135.316574,   15.9249334,    82.690239
    101,  -126.410866,   15.9249334,   95.7525101
    102,  -116.248833,   15.9249334,   107.863152
    103,  -104.931465,   15.9249334,   118.901802
    104,  -92.5712357,   15.9249334,   128.758759
    105,  -79.2910004,   15.9249334,   137.336044
    106,  -65.2227325,   15.9249334,   144.548416
    107,  -50.5062485,   15.9249334,   150.324219
    108,  -35.2878151,   15.9249334,   154.606018
    109,  -19.7186737,   15.9249334,   157.351273
    110,  -3.95355868,   15.9249334,   158.532715
    111,   11.8508482,   15.9249334,   158.138565
    112,   27.5374737,   15.9249334,   156.172791
    113,   42.9504242,   15.9249334,   152.654877
    114,   57.9365082,   15.9249334,   147.619827
    115,   72.3468018,   15.9249334,   141.117645
    116,   86.0380707,   15.9249334,   133.212997
    117,   98.8742599,   15.9249334,   123.984398
    118,   110.727791,   15.9249334,   113.523598
    119,   121.480858,   15.9249334,   101.934547
    120,   131.026596,   15.9249334,   89.3324203
    121,   139.270126,   15.9249334,   75.8424759
    122,   146.129547,   15.9249334,   61.5987625
    123,   151.536652,   15.9249334,   46.7428665
    124,   155.437714,   15.9249334,    31.422411
    125,   157.793976,   15.9249334,   15.7896671
    126,   158.582001,   15.9249334,           0.
    127,   157.793976,   31.8498669,  -15.7896671
    128,   155.437714,   31.8498669,   -31.422411
    129,   151.536652,   31.8498669,  -46.7428665
    130,   146.129547,   31.8498669,  -61.5987625
    131,   139.270126,   31.8498669,  -75.8424759
    132,   131.026596,   31.8498669,  -89.3324203
    133,   121.480858,   31.8498669,  -101.934547
    134,   110.727791,   31.8498669,  -113.523598
    135,   98.8742599,   31.8498669,  -123.984398
    136,   86.0380707,   31.8498669,  -133.212997
    137,   72.3468018,   31.8498669,  -141.117645
    138,   57.9365082,   31.8498669,  -147.619827
    139,   42.9504242,   31.8498669,  -152.654877
    140,   27.5374737,   31.8498669,  -156.172791
    141,   11.8508482,   31.8498669,  -158.138565
    142,  -3.95355868,   31.8498669,  -158.532715
    143,  -19.7186737,   31.8498669,  -157.351273
    144,  -35.2878151,   31.8498669,  -154.606018
    145,  -50.5062485,   31.8498669,  -150.324219
    146,  -65.2227325,   31.8498669,  -144.548416
    147,  -79.2910004,   31.8498669,  -137.336044
    148,  -92.5712357,   31.8498669,  -128.758759
    149,  -104.931465,   31.8498669,  -118.901802
    150,  -116.248833,   31.8498669,  -107.863152
    151,  -126.410866,   31.8498669,  -95.7525101
    152,  -135.316574,   31.8498669,   -82.690239
    153,  -142.877441,   31.8498669,  -68.8061523
    154,  -149.018341,   31.8498669,  -54.2382355
    155,  -153.678207,   31.8498669,  -39.1312828
    156,  -156.810776,   31.8498669,  -23.6354198
    157,  -158.384872,   31.8498669,  -7.90466022
    158,  -158.384872,   31.8498669,   7.90466022
    159,  -156.810776,   31.8498669,   23.6354198
    160,  -153.678207,   31.8498669,   39.1312828
    161,  -149.018341,   31.8498669,   54.2382355
    162,  -142.877441,   31.8498669,   68.8061523
    163,  -135.316574,   31.8498669,    82.690239
    164,  -126.410866,   31.8498669,   95.7525101
    165,  -116.248833,   31.8498669,   107.863152
    166,  -104.931465,   31.8498669,   118.901802
    167,  -92.5712357,   31.8498669,   128.758759
    168,  -79.2910004,   31.8498669,   137.336044
    169,  -65.2227325,   31.8498669,   144.548416
    170,  -50.5062485,   31.8498669,   150.324219
    171,  -35.2878151,   31.8498669,   154.606018
    172,  -19.7186737,   31.8498669,   157.351273
    173,  -3.95355868,   31.8498669,   158.532715
    174,   11.8508482,   31.8498669,   158.138565
    175,   27.5374737,   31.8498669,   156.172791
    176,   42.9504242,   31.8498669,   152.654877
    177,   57.9365082,   31.8498669,   147.619827
    178,   72.3468018,   31.8498669,   141.117645
    179,   86.0380707,   31.8498669,   133.212997
    180,   98.8742599,   31.8498669,   123.984398
    181,   110.727791,   31.8498669,   113.523598
    182,   121.480858,   31.8498669,   101.934547
    183,   131.026596,   31.8498669,   89.3324203
    184,   139.270126,   31.8498669,   75.8424759
    185,   146.129547,   31.8498669,   61.5987625
    186,   151.536652,   31.8498669,   46.7428665
    187,   155.437714,   31.8498669,    31.422411
    188,   157.793976,   31.8498669,   15.7896671
    189,   158.582001,   31.8498669,           0.
    190,   157.793976,   47.7747993,  -15.7896671
    191,   155.437714,   47.7747993,   -31.422411
    192,   151.536652,   47.7747993,  -46.7428665
    193,   146.129547,   47.7747993,  -61.5987625
    194,   139.270126,   47.7747993,  -75.8424759
    195,   131.026596,   47.7747993,  -89.3324203
    196,   121.480858,   47.7747993,  -101.934547
    197,   110.727791,   47.7747993,  -113.523598
    198,   98.8742599,   47.7747993,  -123.984398
    199,   86.0380707,   47.7747993,  -133.212997
    200,   72.3468018,   47.7747993,  -141.117645
    201,   57.9365082,   47.7747993,  -147.619827
    202,   42.9504242,   47.7747993,  -152.654877
    203,   27.5374737,   47.7747993,  -156.172791
    204,   11.8508482,   47.7747993,  -158.138565
    205,  -3.95355868,   47.7747993,  -158.532715
    206,  -19.7186737,   47.7747993,  -157.351273
    207,  -35.2878151,   47.7747993,  -154.606018
    208,  -50.5062485,   47.7747993,  -150.324219
    209,  -65.2227325,   47.7747993,  -144.548416
    210,  -79.2910004,   47.7747993,  -137.336044
    211,  -92.5712357,   47.7747993,  -128.758759
    212,  -104.931465,   47.7747993,  -118.901802
    213,  -116.248833,   47.7747993,  -107.863152
    214,  -126.410866,   47.7747993,  -95.7525101
    215,  -135.316574,   47.7747993,   -82.690239
    216,  -142.877441,   47.7747993,  -68.8061523
    217,  -149.018341,   47.7747993,  -54.2382355
    218,  -153.678207,   47.7747993,  -39.1312828
    219,  -156.810776,   47.7747993,  -23.6354198
    220,  -158.384872,   47.7747993,  -7.90466022
    221,  -158.384872,   47.7747993,   7.90466022
    222,  -156.810776,   47.7747993,   23.6354198
    223,  -153.678207,   47.7747993,   39.1312828
    224,  -149.018341,   47.7747993,   54.2382355
    225,  -142.877441,   47.7747993,   68.8061523
    226,  -135.316574,   47.7747993,    82.690239
    227,  -126.410866,   47.7747993,   95.7525101
    228,  -116.248833,   47.7747993,   107.863152
    229,  -104.931465,   47.7747993,   118.901802
    230,  -92.5712357,   47.7747993,   128.758759
    231,  -79.2910004,   47.7747993,   137.336044
    232,  -65.2227325,   47.7747993,   144.548416
    233,  -50.5062485,   47.7747993,   150.324219
    234,  -35.2878151,   47.7747993,   154.606018
    235,  -19.7186737,   47.7747993,   157.351273
    236,  -3.95355868,   47.7747993,   158.532715
    237,   11.8508482,   47.7747993,   158.138565
    238,   27.5374737,   47.7747993,   156.172791
    239,   42.9504242,   47.7747993,   152.654877
    240,   57.9365082,   47.7747993,   147.619827
    241,   72.3468018,   47.7747993,   141.117645
    242,   86.0380707,   47.7747993,   133.212997
    243,   98.8742599,   47.7747993,   123.984398
    244,   110.727791,   47.7747993,   113.523598
    245,   121.480858,   47.7747993,   101.934547
    246,   131.026596,   47.7747993,   89.3324203
    247,   139.270126,   47.7747993,   75.8424759
    248,   146.129547,   47.7747993,   61.5987625
    249,   151.536652,   47.7747993,   46.7428665
    250,   155.437714,   47.7747993,    31.422411
    251,   157.793976,   47.7747993,   15.7896671
    252,   158.582001,   47.7747993,           0.
    253,   157.793976,   63.6997337,  -15.7896671
    254,   155.437714,   63.6997337,   -31.422411
    255,   151.536652,   63.6997337,  -46.7428665
    256,   146.129547,   63.6997337,  -61.5987625
    257,   139.270126,   63.6997337,  -75.8424759
    258,   131.026596,   63.6997337,  -89.3324203
    259,   121.480858,   63.6997337,  -101.934547
    260,   110.727791,   63.6997337,  -113.523598
    261,   98.8742599,   63.6997337,  -123.984398
    262,   86.0380707,   63.6997337,  -133.212997
    263,   72.3468018,   63.6997337,  -141.117645
    264,   57.9365082,   63.6997337,  -147.619827
    265,   42.9504242,   63.6997337,  -152.654877
    266,   27.5374737,   63.6997337,  -156.172791
    267,   11.8508482,   63.6997337,  -158.138565
    268,  -3.95355868,   63.6997337,  -158.532715
    269,  -19.7186737,   63.6997337,  -157.351273
    270,  -35.2878151,   63.6997337,  -154.606018
    271,  -50.5062485,   63.6997337,  -150.324219
    272,  -65.2227325,   63.6997337,  -144.548416
    273,  -79.2910004,   63.6997337,  -137.336044
    274,  -92.5712357,   63.6997337,  -128.758759
    275,  -104.931465,   63.6997337,  -118.901802
    276,  -116.248833,   63.6997337,  -107.863152
    277,  -126.410866,   63.6997337,  -95.7525101
    278,  -135.316574,   63.6997337,   -82.690239
    279,  -142.877441,   63.6997337,  -68.8061523
    280,  -149.018341,   63.6997337,  -54.2382355
    281,  -153.678207,   63.6997337,  -39.1312828
    282,  -156.810776,   63.6997337,  -23.6354198
    283,  -158.384872,   63.6997337,  -7.90466022
    284,  -158.384872,   63.6997337,   7.90466022
    285,  -156.810776,   63.6997337,   23.6354198
    286,  -153.678207,   63.6997337,   39.1312828
    287,  -149.018341,   63.6997337,   54.2382355
    288,  -142.877441,   63.6997337,   68.8061523
    289,  -135.316574,   63.6997337,    82.690239
    290,  -126.410866,   63.6997337,   95.7525101
    291,  -116.248833,   63.6997337,   107.863152
    292,  -104.931465,   63.6997337,   118.901802
    293,  -92.5712357,   63.6997337,   128.758759
    294,  -79.2910004,   63.6997337,   137.336044
    295,  -65.2227325,   63.6997337,   144.548416
    296,  -50.5062485,   63.6997337,   150.324219
    297,  -35.2878151,   63.6997337,   154.606018
    298,  -19.7186737,   63.6997337,   157.351273
    299,  -3.95355868,   63.6997337,   158.532715
    300,   11.8508482,   63.6997337,   158.138565
    301,   27.5374737,   63.6997337,   156.172791
    302,   42.9504242,   63.6997337,   152.654877
    303,   57.9365082,   63.6997337,   147.619827
    304,   72.3468018,   63.6997337,   141.117645
    305,   86.0380707,   63.6997337,   133.212997
    306,   98.8742599,   63.6997337,   123.984398
    307,   110.727791,   63.6997337,   113.523598
    308,   121.480858,   63.6997337,   101.934547
    309,   131.026596,   63.6997337,   89.3324203
    310,   139.270126,   63.6997337,   75.8424759
    311,   146.129547,   63.6997337,   61.5987625
    312,   151.536652,   63.6997337,   46.7428665
    313,   155.437714,   63.6997337,    31.422411
    314,   157.793976,   63.6997337,   15.7896671
    315,   158.582001,   63.6997337,           0.
    316,   157.793976,   79.6246643,  -15.7896671
    317,   155.437714,   79.6246643,   -31.422411
    318,   151.536652,   79.6246643,  -46.7428665
    319,   146.129547,   79.6246643,  -61.5987625
    320,   139.270126,   79.6246643,  -75.8424759
    321,   131.026596,   79.6246643,  -89.3324203
    322,   121.480858,   79.6246643,  -101.934547
    323,   110.727791,   79.6246643,  -113.523598
    324,   98.8742599,   79.6246643,  -123.984398
    325,   86.0380707,   79.6246643,  -133.212997
    326,   72.3468018,   79.6246643,  -141.117645
    327,   57.9365082,   79.6246643,  -147.619827
    328,   42.9504242,   79.6246643,  -152.654877
    329,   27.5374737,   79.6246643,  -156.172791
    330,   11.8508482,   79.6246643,  -158.138565
    331,  -3.95355868,   79.6246643,  -158.532715
    332,  -19.7186737,   79.6246643,  -157.351273
    333,  -35.2878151,   79.6246643,  -154.606018
    334,  -50.5062485,   79.6246643,  -150.324219
    335,  -65.2227325,   79.6246643,  -144.548416
    336,  -79.2910004,   79.6246643,  -137.336044
    337,  -92.5712357,   79.6246643,  -128.758759
    338,  -104.931465,   79.6246643,  -118.901802
    339,  -116.248833,   79.6246643,  -107.863152
    340,  -126.410866,   79.6246643,  -95.7525101
    341,  -135.316574,   79.6246643,   -82.690239
    342,  -142.877441,   79.6246643,  -68.8061523
    343,  -149.018341,   79.6246643,  -54.2382355
    344,  -153.678207,   79.6246643,  -39.1312828
    345,  -156.810776,   79.6246643,  -23.6354198
    346,  -158.384872,   79.6246643,  -7.90466022
    347,  -158.384872,   79.6246643,   7.90466022
    348,  -156.810776,   79.6246643,   23.6354198
    349,  -153.678207,   79.6246643,   39.1312828
    350,  -149.018341,   79.6246643,   54.2382355
    351,  -142.877441,   79.6246643,   68.8061523
    352,  -135.316574,   79.6246643,    82.690239
    353,  -126.410866,   79.6246643,   95.7525101
    354,  -116.248833,   79.6246643,   107.863152
    355,  -104.931465,   79.6246643,   118.901802
    356,  -92.5712357,   79.6246643,   128.758759
    357,  -79.2910004,   79.6246643,   137.336044
    358,  -65.2227325,   79.6246643,   144.548416
    359,  -50.5062485,   79.6246643,   150.324219
    360,  -35.2878151,   79.6246643,   154.606018
    361,  -19.7186737,   79.6246643,   157.351273
    362,  -3.95355868,   79.6246643,   158.532715
    363,   11.8508482,   79.6246643,   158.138565
    364,   27.5374737,   79.6246643,   156.172791
    365,   42.9504242,   79.6246643,   152.654877
    366,   57.9365082,   79.6246643,   147.619827
    367,   72.3468018,   79.6246643,   141.117645
    368,   86.0380707,   79.6246643,   133.212997
    369,   98.8742599,   79.6246643,   123.984398
    370,   110.727791,   79.6246643,   113.523598
    371,   121.480858,   79.6246643,   101.934547
    372,   131.026596,   79.6246643,   89.3324203
    373,   139.270126,   79.6246643,   75.8424759
    374,   146.129547,   79.6246643,   61.5987625
    375,   151.536652,   79.6246643,   46.7428665
    376,   155.437714,   79.6246643,    31.422411
    377,   157.793976,   79.6246643,   15.7896671
    378,   158.582001,   79.6246643,           0.
    379,   157.793976,   95.5495987,  -15.7896671
    380,   155.437714,   95.5495987,   -31.422411
    381,   151.536652,   95.5495987,  -46.7428665
    382,   146.129547,   95.5495987,  -61.5987625
    383,   139.270126,   95.5495987,  -75.8424759
    384,   131.026596,   95.5495987,  -89.3324203
    385,   121.480858,   95.5495987,  -101.934547
    386,   110.727791,   95.5495987,  -113.523598
    387,   98.8742599,   95.5495987,  -123.984398
    388,   86.0380707,   95.5495987,  -133.212997
    389,   72.3468018,   95.5495987,  -141.117645
    390,   57.9365082,   95.5495987,  -147.619827
    391,   42.9504242,   95.5495987,  -152.654877
    392,   27.5374737,   95.5495987,  -156.172791
    393,   11.8508482,   95.5495987,  -158.138565
    394,  -3.95355868,   95.5495987,  -158.532715
    395,  -19.7186737,   95.5495987,  -157.351273
    396,  -35.2878151,   95.5495987,  -154.606018
    397,  -50.5062485,   95.5495987,  -150.324219
    398,  -65.2227325,   95.5495987,  -144.548416
    399,  -79.2910004,   95.5495987,  -137.336044
    400,  -92.5712357,   95.5495987,  -128.758759
    401,  -104.931465,   95.5495987,  -118.901802
    402,  -116.248833,   95.5495987,  -107.863152
    403,  -126.410866,   95.5495987,  -95.7525101
    404,  -135.316574,   95.5495987,   -82.690239
    405,  -142.877441,   95.5495987,  -68.8061523
    406,  -149.018341,   95.5495987,  -54.2382355
    407,  -153.678207,   95.5495987,  -39.1312828
    408,  -156.810776,   95.5495987,  -23.6354198
    409,  -158.384872,   95.5495987,  -7.90466022
    410,  -158.384872,   95.5495987,   7.90466022
    411,  -156.810776,   95.5495987,   23.6354198
    412,  -153.678207,   95.5495987,   39.1312828
    413,  -149.018341,   95.5495987,   54.2382355
    414,  -142.877441,   95.5495987,   68.8061523
    415,  -135.316574,   95.5495987,    82.690239
    416,  -126.410866,   95.5495987,   95.7525101
    417,  -116.248833,   95.5495987,   107.863152
    418,  -104.931465,   95.5495987,   118.901802
    419,  -92.5712357,   95.5495987,   128.758759
    420,  -79.2910004,   95.5495987,   137.336044
    421,  -65.2227325,   95.5495987,   144.548416
    422,  -50.5062485,   95.5495987,   150.324219
    423,  -35.2878151,   95.5495987,   154.606018
    424,  -19.7186737,   95.5495987,   157.351273
    425,  -3.95355868,   95.5495987,   158.532715
    426,   11.8508482,   95.5495987,   158.138565
    427,   27.5374737,   95.5495987,   156.172791
    428,   42.9504242,   95.5495987,   152.654877
    429,   57.9365082,   95.5495987,   147.619827
    430,   72.3468018,   95.5495987,   141.117645
    431,   86.0380707,   95.5495987,   133.212997
    432,   98.8742599,   95.5495987,   123.984398
    433,   110.727791,   95.5495987,   113.523598
    434,   121.480858,   95.5495987,   101.934547
    435,   131.026596,   95.5495987,   89.3324203
    436,   139.270126,   95.5495987,   75.8424759
    437,   146.129547,   95.5495987,   61.5987625
    438,   151.536652,   95.5495987,   46.7428665
    439,   155.437714,   95.5495987,    31.422411
    440,   157.793976,   95.5495987,   15.7896671
    441,   158.582001,   95.5495987,           0.
    442,   157.793976,   111.474533,  -15.7896671
    443,   155.437714,   111.474533,   -31.422411
    444,   151.536652,   111.474533,  -46.7428665
    445,   146.129547,   111.474533,  -61.5987625
    446,   139.270126,   111.474533,  -75.8424759
    447,   131.026596,   111.474533,  -89.3324203
    448,   121.480858,   111.474533,  -101.934547
    449,   110.727791,   111.474533,  -113.523598
    450,   98.8742599,   111.474533,  -123.984398
    451,   86.0380707,   111.474533,  -133.212997
    452,   72.3468018,   111.474533,  -141.117645
    453,   57.9365082,   111.474533,  -147.619827
    454,   42.9504242,   111.474533,  -152.654877
    455,   27.5374737,   111.474533,  -156.172791
    456,   11.8508482,   111.474533,  -158.138565
    457,  -3.95355868,   111.474533,  -158.532715
    458,  -19.7186737,   111.474533,  -157.351273
    459,  -35.2878151,   111.474533,  -154.606018
    460,  -50.5062485,   111.474533,  -150.324219
    461,  -65.2227325,   111.474533,  -144.548416
    462,  -79.2910004,   111.474533,  -137.336044
    463,  -92.5712357,   111.474533,  -128.758759
    464,  -104.931465,   111.474533,  -118.901802
    465,  -116.248833,   111.474533,  -107.863152
    466,  -126.410866,   111.474533,  -95.7525101
    467,  -135.316574,   111.474533,   -82.690239
    468,  -142.877441,   111.474533,  -68.8061523
    469,  -149.018341,   111.474533,  -54.2382355
    470,  -153.678207,   111.474533,  -39.1312828
    471,  -156.810776,   111.474533,  -23.6354198
    472,  -158.384872,   111.474533,  -7.90466022
    473,  -158.384872,   111.474533,   7.90466022
    474,  -156.810776,   111.474533,   23.6354198
    475,  -153.678207,   111.474533,   39.1312828
    476,  -149.018341,   111.474533,   54.2382355
    477,  -142.877441,   111.474533,   68.8061523
    478,  -135.316574,   111.474533,    82.690239
    479,  -126.410866,   111.474533,   95.7525101
    480,  -116.248833,   111.474533,   107.863152
    481,  -104.931465,   111.474533,   118.901802
    482,  -92.5712357,   111.474533,   128.758759
    483,  -79.2910004,   111.474533,   137.336044
    484,  -65.2227325,   111.474533,   144.548416
    485,  -50.5062485,   111.474533,   150.324219
    486,  -35.2878151,   111.474533,   154.606018
    487,  -19.7186737,   111.474533,   157.351273
    488,  -3.95355868,   111.474533,   158.532715
    489,   11.8508482,   111.474533,   158.138565
    490,   27.5374737,   111.474533,   156.172791
    491,   42.9504242,   111.474533,   152.654877
    492,   57.9365082,   111.474533,   147.619827
    493,   72.3468018,   111.474533,   141.117645
    494,   86.0380707,   111.474533,   133.212997
    495,   98.8742599,   111.474533,   123.984398
    496,   110.727791,   111.474533,   113.523598
    497,   121.480858,   111.474533,   101.934547
    498,   131.026596,   111.474533,   89.3324203
    499,   139.270126,   111.474533,   75.8424759
    500,   146.129547,   111.474533,   61.5987625
    501,   151.536652,   111.474533,   46.7428665
    502,   155.437714,   111.474533,    31.422411
    503,   157.793976,   111.474533,   15.7896671
    504,   158.582001,   111.474533,           0.
    505,   157.793976,   127.399467,  -15.7896671
    506,   155.437714,   127.399467,   -31.422411
    507,   151.536652,   127.399467,  -46.7428665
    508,   146.129547,   127.399467,  -61.5987625
    509,   139.270126,   127.399467,  -75.8424759
    510,   131.026596,   127.399467,  -89.3324203
    511,   121.480858,   127.399467,  -101.934547
    512,   110.727791,   127.399467,  -113.523598
    513,   98.8742599,   127.399467,  -123.984398
    514,   86.0380707,   127.399467,  -133.212997
    515,   72.3468018,   127.399467,  -141.117645
    516,   57.9365082,   127.399467,  -147.619827
    517,   42.9504242,   127.399467,  -152.654877
    518,   27.5374737,   127.399467,  -156.172791
    519,   11.8508482,   127.399467,  -158.138565
    520,  -3.95355868,   127.399467,  -158.532715
    521,  -19.7186737,   127.399467,  -157.351273
    522,  -35.2878151,   127.399467,  -154.606018
    523,  -50.5062485,   127.399467,  -150.324219
    524,  -65.2227325,   127.399467,  -144.548416
    525,  -79.2910004,   127.399467,  -137.336044
    526,  -92.5712357,   127.399467,  -128.758759
    527,  -104.931465,   127.399467,  -118.901802
    528,  -116.248833,   127.399467,  -107.863152
    529,  -126.410866,   127.399467,  -95.7525101
    530,  -135.316574,   127.399467,   -82.690239
    531,  -142.877441,   127.399467,  -68.8061523
    532,  -149.018341,   127.399467,  -54.2382355
    533,  -153.678207,   127.399467,  -39.1312828
    534,  -156.810776,   127.399467,  -23.6354198
    535,  -158.384872,   127.399467,  -7.90466022
    536,  -158.384872,   127.399467,   7.90466022
    537,  -156.810776,   127.399467,   23.6354198
    538,  -153.678207,   127.399467,   39.1312828
    539,  -149.018341,   127.399467,   54.2382355
    540,  -142.877441,   127.399467,   68.8061523
    541,  -135.316574,   127.399467,    82.690239
    542,  -126.410866,   127.399467,   95.7525101
    543,  -116.248833,   127.399467,   107.863152
    544,  -104.931465,   127.399467,   118.901802
    545,  -92.5712357,   127.399467,   128.758759
    546,  -79.2910004,   127.399467,   137.336044
    547,  -65.2227325,   127.399467,   144.548416
    548,  -50.5062485,   127.399467,   150.324219
    549,  -35.2878151,   127.399467,   154.606018
    550,  -19.7186737,   127.399467,   157.351273
    551,  -3.95355868,   127.399467,   158.532715
    552,   11.8508482,   127.399467,   158.138565
    553,   27.5374737,   127.399467,   156.172791
    554,   42.9504242,   127.399467,   152.654877
    555,   57.9365082,   127.399467,   147.619827
    556,   72.3468018,   127.399467,   141.117645
    557,   86.0380707,   127.399467,   133.212997
    558,   98.8742599,   127.399467,   123.984398
    559,   110.727791,   127.399467,   113.523598
    560,   121.480858,   127.399467,   101.934547
    561,   131.026596,   127.399467,   89.3324203
    562,   139.270126,   127.399467,   75.8424759
    563,   146.129547,   127.399467,   61.5987625
    564,   151.536652,   127.399467,   46.7428665
    565,   155.437714,   127.399467,    31.422411
    566,   157.793976,   127.399467,   15.7896671
    567,   158.582001,   127.399467,           0.
    568,   157.793976,   143.324402,  -15.7896671
    569,   155.437714,   143.324402,   -31.422411
    570,   151.536652,   143.324402,  -46.7428665
    571,   146.129547,   143.324402,  -61.5987625
    572,   139.270126,   143.324402,  -75.8424759
    573,   131.026596,   143.324402,  -89.3324203
    574,   121.480858,   143.324402,  -101.934547
    575,   110.727791,   143.324402,  -113.523598
    576,   98.8742599,   143.324402,  -123.984398
    577,   86.0380707,   143.324402,  -133.212997
    578,   72.3468018,   143.324402,  -141.117645
    579,   57.9365082,   143.324402,  -147.619827
    580,   42.9504242,   143.324402,  -152.654877
    581,   27.5374737,   143.324402,  -156.172791
    582,   11.8508482,   143.324402,  -158.138565
    583,  -3.95355868,   143.324402,  -158.532715
    584,  -19.7186737,   143.324402,  -157.351273
    585,  -35.2878151,   143.324402,  -154.606018
    586,  -50.5062485,   143.324402,  -150.324219
    587,  -65.2227325,   143.324402,  -144.548416
    588,  -79.2910004,   143.324402,  -137.336044
    589,  -92.5712357,   143.324402,  -128.758759
    590,  -104.931465,   143.324402,  -118.901802
    591,  -116.248833,   143.324402,  -107.863152
    592,  -126.410866,   143.324402,  -95.7525101
    593,  -135.316574,   143.324402,   -82.690239
    594,  -142.877441,   143.324402,  -68.8061523
    595,  -149.018341,   143.324402,  -54.2382355
    596,  -153.678207,   143.324402,  -39.1312828
    597,  -156.810776,   143.324402,  -23.6354198
    598,  -158.384872,   143.324402,  -7.90466022
    599,  -158.384872,   143.324402,   7.90466022
    600,  -156.810776,   143.324402,   23.6354198
    601,  -153.678207,   143.324402,   39.1312828
    602,  -149.018341,   143.324402,   54.2382355
    603,  -142.877441,   143.324402,   68.8061523
    604,  -135.316574,   143.324402,    82.690239
    605,  -126.410866,   143.324402,   95.7525101
    606,  -116.248833,   143.324402,   107.863152
    607,  -104.931465,   143.324402,   118.901802
    608,  -92.5712357,   143.324402,   128.758759
    609,  -79.2910004,   143.324402,   137.336044
    610,  -65.2227325,   143.324402,   144.548416
    611,  -50.5062485,   143.324402,   150.324219
    612,  -35.2878151,   143.324402,   154.606018
    613,  -19.7186737,   143.324402,   157.351273
    614,  -3.95355868,   143.324402,   158.532715
    615,   11.8508482,   143.324402,   158.138565
    616,   27.5374737,   143.324402,   156.172791
    617,   42.9504242,   143.324402,   152.654877
    618,   57.9365082,   143.324402,   147.619827
    619,   72.3468018,   143.324402,   141.117645
    620,   86.0380707,   143.324402,   133.212997
    621,   98.8742599,   143.324402,   123.984398
    622,   110.727791,   143.324402,   113.523598
    623,   121.480858,   143.324402,   101.934547
    624,   131.026596,   143.324402,   89.3324203
    625,   139.270126,   143.324402,   75.8424759
    626,   146.129547,   143.324402,   61.5987625
    627,   151.536652,   143.324402,   46.7428665
    628,   155.437714,   143.324402,    31.422411
    629,   157.793976,   143.324402,   15.7896671
    630,   158.582001,   143.324402,           0.
    631,   157.793976,   159.249329,  -15.7896671
    632,   155.437714,   159.249329,   -31.422411
    633,   151.536652,   159.249329,  -46.7428665
    634,   146.129547,   159.249329,  -61.5987625
    635,   139.270126,   159.249329,  -75.8424759
    636,   131.026596,   159.249329,  -89.3324203
    637,   121.480858,   159.249329,  -101.934547
    638,   110.727791,   159.249329,  -113.523598
    639,   98.8742599,   159.249329,  -123.984398
    640,   86.0380707,   159.249329,  -133.212997
    641,   72.3468018,   159.249329,  -141.117645
    642,   57.9365082,   159.249329,  -147.619827
    643,   42.9504242,   159.249329,  -152.654877
    644,   27.5374737,   159.249329,  -156.172791
    645,   11.8508482,   159.249329,  -158.138565
    646,  -3.95355868,   159.249329,  -158.532715
    647,  -19.7186737,   159.249329,  -157.351273
    648,  -35.2878151,   159.249329,  -154.606018
    649,  -50.5062485,   159.249329,  -150.324219
    650,  -65.2227325,   159.249329,  -144.548416
    651,  -79.2910004,   159.249329,  -137.336044
    652,  -92.5712357,   159.249329,  -128.758759
    653,  -104.931465,   159.249329,  -118.901802
    654,  -116.248833,   159.249329,  -107.863152
    655,  -126.410866,   159.249329,  -95.7525101
    656,  -135.316574,   159.249329,   -82.690239
    657,  -142.877441,   159.249329,  -68.8061523
    658,  -149.018341,   159.249329,  -54.2382355
    659,  -153.678207,   159.249329,  -39.1312828
    660,  -156.810776,   159.249329,  -23.6354198
    661,  -158.384872,   159.249329,  -7.90466022
    662,  -158.384872,   159.249329,   7.90466022
    663,  -156.810776,   159.249329,   23.6354198
    664,  -153.678207,   159.249329,   39.1312828
    665,  -149.018341,   159.249329,   54.2382355
    666,  -142.877441,   159.249329,   68.8061523
    667,  -135.316574,   159.249329,    82.690239
    668,  -126.410866,   159.249329,   95.7525101
    669,  -116.248833,   159.249329,   107.863152
    670,  -104.931465,   159.249329,   118.901802
    671,  -92.5712357,   159.249329,   128.758759
    672,  -79.2910004,   159.249329,   137.336044
    673,  -65.2227325,   159.249329,   144.548416
    674,  -50.5062485,   159.249329,   150.324219
    675,  -35.2878151,   159.249329,   154.606018
    676,  -19.7186737,   159.249329,   157.351273
    677,  -3.95355868,   159.249329,   158.532715
    678,   11.8508482,   159.249329,   158.138565
    679,   27.5374737,   159.249329,   156.172791
    680,   42.9504242,   159.249329,   152.654877
    681,   57.9365082,   159.249329,   147.619827
    682,   72.3468018,   159.249329,   141.117645
    683,   86.0380707,   159.249329,   133.212997
    684,   98.8742599,   159.249329,   123.984398
    685,   110.727791,   159.249329,   113.523598
    686,   121.480858,   159.249329,   101.934547
    687,   131.026596,   159.249329,   89.3324203
    688,   139.270126,   159.249329,   75.8424759
    689,   146.129547,   159.249329,   61.5987625
    690,   151.536652,   159.249329,   46.7428665
    691,   155.437714,   159.249329,    31.422411
    692,   157.793976,   159.249329,   15.7896671
    693,   158.582001,   159.249329,           0.
    694,   157.793976,   175.174271,  -15.7896671
    695,   155.437714,   175.174271,   -31.422411
    696,   151.536652,   175.174271,  -46.7428665
    697,   146.129547,   175.174271,  -61.5987625
    698,   139.270126,   175.174271,  -75.8424759
    699,   131.026596,   175.174271,  -89.3324203
    700,   121.480858,   175.174271,  -101.934547
    701,   110.727791,   175.174271,  -113.523598
    702,   98.8742599,   175.174271,  -123.984398
    703,   86.0380707,   175.174271,  -133.212997
    704,   72.3468018,   175.174271,  -141.117645
    705,   57.9365082,   175.174271,  -147.619827
    706,   42.9504242,   175.174271,  -152.654877
    707,   27.5374737,   175.174271,  -156.172791
    708,   11.8508482,   175.174271,  -158.138565
    709,  -3.95355868,   175.174271,  -158.532715
    710,  -19.7186737,   175.174271,  -157.351273
    711,  -35.2878151,   175.174271,  -154.606018
    712,  -50.5062485,   175.174271,  -150.324219
    713,  -65.2227325,   175.174271,  -144.548416
    714,  -79.2910004,   175.174271,  -137.336044
    715,  -92.5712357,   175.174271,  -128.758759
    716,  -104.931465,   175.174271,  -118.901802
    717,  -116.248833,   175.174271,  -107.863152
    718,  -126.410866,   175.174271,  -95.7525101
    719,  -135.316574,   175.174271,   -82.690239
    720,  -142.877441,   175.174271,  -68.8061523
    721,  -149.018341,   175.174271,  -54.2382355
    722,  -153.678207,   175.174271,  -39.1312828
    723,  -156.810776,   175.174271,  -23.6354198
    724,  -158.384872,   175.174271,  -7.90466022
    725,  -158.384872,   175.174271,   7.90466022
    726,  -156.810776,   175.174271,   23.6354198
    727,  -153.678207,   175.174271,   39.1312828
    728,  -149.018341,   175.174271,   54.2382355
    729,  -142.877441,   175.174271,   68.8061523
    730,  -135.316574,   175.174271,    82.690239
    731,  -126.410866,   175.174271,   95.7525101
    732,  -116.248833,   175.174271,   107.863152
    733,  -104.931465,   175.174271,   118.901802
    734,  -92.5712357,   175.174271,   128.758759
    735,  -79.2910004,   175.174271,   137.336044
    736,  -65.2227325,   175.174271,   144.548416
    737,  -50.5062485,   175.174271,   150.324219
    738,  -35.2878151,   175.174271,   154.606018
    739,  -19.7186737,   175.174271,   157.351273
    740,  -3.95355868,   175.174271,   158.532715
    741,   11.8508482,   175.174271,   158.138565
    742,   27.5374737,   175.174271,   156.172791
    743,   42.9504242,   175.174271,   152.654877
    744,   57.9365082,   175.174271,   147.619827
    745,   72.3468018,   175.174271,   141.117645
    746,   86.0380707,   175.174271,   133.212997
    747,   98.8742599,   175.174271,   123.984398
    748,   110.727791,   175.174271,   113.523598
    749,   121.480858,   175.174271,   101.934547
    750,   131.026596,   175.174271,   89.3324203
    751,   139.270126,   175.174271,   75.8424759
    752,   146.129547,   175.174271,   61.5987625
    753,   151.536652,   175.174271,   46.7428665
    754,   155.437714,   175.174271,    31.422411
    755,   157.793976,   175.174271,   15.7896671
    756,   158.582001,   175.174271,           0.
    757,   157.793976,   191.099197,  -15.7896671
    758,   155.437714,   191.099197,   -31.422411
    759,   151.536652,   191.099197,  -46.7428665
    760,   146.129547,   191.099197,  -61.5987625
    761,   139.270126,   191.099197,  -75.8424759
    762,   131.026596,   191.099197,  -89.3324203
    763,   121.480858,   191.099197,  -101.934547
    764,   110.727791,   191.099197,  -113.523598
    765,   98.8742599,   191.099197,  -123.984398
    766,   86.0380707,   191.099197,  -133.212997
    767,   72.3468018,   191.099197,  -141.117645
    768,   57.9365082,   191.099197,  -147.619827
    769,   42.9504242,   191.099197,  -152.654877
    770,   27.5374737,   191.099197,  -156.172791
    771,   11.8508482,   191.099197,  -158.138565
    772,  -3.95355868,   191.099197,  -158.532715
    773,  -19.7186737,   191.099197,  -157.351273
    774,  -35.2878151,   191.099197,  -154.606018
    775,  -50.5062485,   191.099197,  -150.324219
    776,  -65.2227325,   191.099197,  -144.548416
    777,  -79.2910004,   191.099197,  -137.336044
    778,  -92.5712357,   191.099197,  -128.758759
    779,  -104.931465,   191.099197,  -118.901802
    780,  -116.248833,   191.099197,  -107.863152
    781,  -126.410866,   191.099197,  -95.7525101
    782,  -135.316574,   191.099197,   -82.690239
    783,  -142.877441,   191.099197,  -68.8061523
    784,  -149.018341,   191.099197,  -54.2382355
    785,  -153.678207,   191.099197,  -39.1312828
    786,  -156.810776,   191.099197,  -23.6354198
    787,  -158.384872,   191.099197,  -7.90466022
    788,  -158.384872,   191.099197,   7.90466022
    789,  -156.810776,   191.099197,   23.6354198
    790,  -153.678207,   191.099197,   39.1312828
    791,  -149.018341,   191.099197,   54.2382355
    792,  -142.877441,   191.099197,   68.8061523
    793,  -135.316574,   191.099197,    82.690239
    794,  -126.410866,   191.099197,   95.7525101
    795,  -116.248833,   191.099197,   107.863152
    796,  -104.931465,   191.099197,   118.901802
    797,  -92.5712357,   191.099197,   128.758759
    798,  -79.2910004,   191.099197,   137.336044
    799,  -65.2227325,   191.099197,   144.548416
    800,  -50.5062485,   191.099197,   150.324219
    801,  -35.2878151,   191.099197,   154.606018
    802,  -19.7186737,   191.099197,   157.351273
    803,  -3.95355868,   191.099197,   158.532715
    804,   11.8508482,   191.099197,   158.138565
    805,   27.5374737,   191.099197,   156.172791
    806,   42.9504242,   191.099197,   152.654877
    807,   57.9365082,   191.099197,   147.619827
    808,   72.3468018,   191.099197,   141.117645
    809,   86.0380707,   191.099197,   133.212997
    810,   98.8742599,   191.099197,   123.984398
    811,   110.727791,   191.099197,   113.523598
    812,   121.480858,   191.099197,   101.934547
    813,   131.026596,   191.099197,   89.3324203
    814,   139.270126,   191.099197,   75.8424759
    815,   146.129547,   191.099197,   61.5987625
    816,   151.536652,   191.099197,   46.7428665
    817,   155.437714,   191.099197,    31.422411
    818,   157.793976,   191.099197,   15.7896671
    819,   158.582001,   191.099197,           0.
    820,   157.793976,   207.024139,  -15.7896671
    821,   155.437714,   207.024139,   -31.422411
    822,   151.536652,   207.024139,  -46.7428665
    823,   146.129547,   207.024139,  -61.5987625
    824,   139.270126,   207.024139,  -75.8424759
    825,   131.026596,   207.024139,  -89.3324203
    826,   121.480858,   207.024139,  -101.934547
    827,   110.727791,   207.024139,  -113.523598
    828,   98.8742599,   207.024139,  -123.984398
    829,   86.0380707,   207.024139,  -133.212997
    830,   72.3468018,   207.024139,  -141.117645
    831,   57.9365082,   207.024139,  -147.619827
    832,   42.9504242,   207.024139,  -152.654877
    833,   27.5374737,   207.024139,  -156.172791
    834,   11.8508482,   207.024139,  -158.138565
    835,  -3.95355868,   207.024139,  -158.532715
    836,  -19.7186737,   207.024139,  -157.351273
    837,  -35.2878151,   207.024139,  -154.606018
    838,  -50.5062485,   207.024139,  -150.324219
    839,  -65.2227325,   207.024139,  -144.548416
    840,  -79.2910004,   207.024139,  -137.336044
    841,  -92.5712357,   207.024139,  -128.758759
    842,  -104.931465,   207.024139,  -118.901802
    843,  -116.248833,   207.024139,  -107.863152
    844,  -126.410866,   207.024139,  -95.7525101
    845,  -135.316574,   207.024139,   -82.690239
    846,  -142.877441,   207.024139,  -68.8061523
    847,  -149.018341,   207.024139,  -54.2382355
    848,  -153.678207,   207.024139,  -39.1312828
    849,  -156.810776,   207.024139,  -23.6354198
    850,  -158.384872,   207.024139,  -7.90466022
    851,  -158.384872,   207.024139,   7.90466022
    852,  -156.810776,   207.024139,   23.6354198
    853,  -153.678207,   207.024139,   39.1312828
    854,  -149.018341,   207.024139,   54.2382355
    855,  -142.877441,   207.024139,   68.8061523
    856,  -135.316574,   207.024139,    82.690239
    857,  -126.410866,   207.024139,   95.7525101
    858,  -116.248833,   207.024139,   107.863152
    859,  -104.931465,   207.024139,   118.901802
    860,  -92.5712357,   207.024139,   128.758759
    861,  -79.2910004,   207.024139,   137.336044
    862,  -65.2227325,   207.024139,   144.548416
    863,  -50.5062485,   207.024139,   150.324219
    864,  -35.2878151,   207.024139,   154.606018
    865,  -19.7186737,   207.024139,   157.351273
    866,  -3.95355868,   207.024139,   158.532715
    867,   11.8508482,   207.024139,   158.138565
    868,   27.5374737,   207.024139,   156.172791
    869,   42.9504242,   207.024139,   152.654877
    870,   57.9365082,   207.024139,   147.619827
    871,   72.3468018,   207.024139,   141.117645
    872,   86.0380707,   207.024139,   133.212997
    873,   98.8742599,   207.024139,   123.984398
    874,   110.727791,   207.024139,   113.523598
    875,   121.480858,   207.024139,   101.934547
    876,   131.026596,   207.024139,   89.3324203
    877,   139.270126,   207.024139,   75.8424759
    878,   146.129547,   207.024139,   61.5987625
    879,   151.536652,   207.024139,   46.7428665
    880,   155.437714,   207.024139,    31.422411
    881,   157.793976,   207.024139,   15.7896671
    882,   158.582001,   207.024139,           0.
    883,   157.793976,   222.949066,  -15.7896671
    884,   155.437714,   222.949066,   -31.422411
    885,   151.536652,   222.949066,  -46.7428665
    886,   146.129547,   222.949066,  -61.5987625
    887,   139.270126,   222.949066,  -75.8424759
    888,   131.026596,   222.949066,  -89.3324203
    889,   121.480858,   222.949066,  -101.934547
    890,   110.727791,   222.949066,  -113.523598
    891,   98.8742599,   222.949066,  -123.984398
    892,   86.0380707,   222.949066,  -133.212997
    893,   72.3468018,   222.949066,  -141.117645
    894,   57.9365082,   222.949066,  -147.619827
    895,   42.9504242,   222.949066,  -152.654877
    896,   27.5374737,   222.949066,  -156.172791
    897,   11.8508482,   222.949066,  -158.138565
    898,  -3.95355868,   222.949066,  -158.532715
    899,  -19.7186737,   222.949066,  -157.351273
    900,  -35.2878151,   222.949066,  -154.606018
    901,  -50.5062485,   222.949066,  -150.324219
    902,  -65.2227325,   222.949066,  -144.548416
    903,  -79.2910004,   222.949066,  -137.336044
    904,  -92.5712357,   222.949066,  -128.758759
    905,  -104.931465,   222.949066,  -118.901802
    906,  -116.248833,   222.949066,  -107.863152
    907,  -126.410866,   222.949066,  -95.7525101
    908,  -135.316574,   222.949066,   -82.690239
    909,  -142.877441,   222.949066,  -68.8061523
    910,  -149.018341,   222.949066,  -54.2382355
    911,  -153.678207,   222.949066,  -39.1312828
    912,  -156.810776,   222.949066,  -23.6354198
    913,  -158.384872,   222.949066,  -7.90466022
    914,  -158.384872,   222.949066,   7.90466022
    915,  -156.810776,   222.949066,   23.6354198
    916,  -153.678207,   222.949066,   39.1312828
    917,  -149.018341,   222.949066,   54.2382355
    918,  -142.877441,   222.949066,   68.8061523
    919,  -135.316574,   222.949066,    82.690239
    920,  -126.410866,   222.949066,   95.7525101
    921,  -116.248833,   222.949066,   107.863152
    922,  -104.931465,   222.949066,   118.901802
    923,  -92.5712357,   222.949066,   128.758759
    924,  -79.2910004,   222.949066,   137.336044
    925,  -65.2227325,   222.949066,   144.548416
    926,  -50.5062485,   222.949066,   150.324219
    927,  -35.2878151,   222.949066,   154.606018
    928,  -19.7186737,   222.949066,   157.351273
    929,  -3.95355868,   222.949066,   158.532715
    930,   11.8508482,   222.949066,   158.138565
    931,   27.5374737,   222.949066,   156.172791
    932,   42.9504242,   222.949066,   152.654877
    933,   57.9365082,   222.949066,   147.619827
    934,   72.3468018,   222.949066,   141.117645
    935,   86.0380707,   222.949066,   133.212997
    936,   98.8742599,   222.949066,   123.984398
    937,   110.727791,   222.949066,   113.523598
    938,   121.480858,   222.949066,   101.934547
    939,   131.026596,   222.949066,   89.3324203
    940,   139.270126,   222.949066,   75.8424759
    941,   146.129547,   222.949066,   61.5987625
    942,   151.536652,   222.949066,   46.7428665
    943,   155.437714,   222.949066,    31.422411
    944,   157.793976,   222.949066,   15.7896671
    945,   158.582001,   222.949066,           0.
    946,   157.793976,   238.873993,  -15.7896671
    947,   155.437714,   238.873993,   -31.422411
    948,   151.536652,   238.873993,  -46.7428665
    949,   146.129547,   238.873993,  -61.5987625
    950,   139.270126,   238.873993,  -75.8424759
    951,   131.026596,   238.873993,  -89.3324203
    952,   121.480858,   238.873993,  -101.934547
    953,   110.727791,   238.873993,  -113.523598
    954,   98.8742599,   238.873993,  -123.984398
    955,   86.0380707,   238.873993,  -133.212997
    956,   72.3468018,   238.873993,  -141.117645
    957,   57.9365082,   238.873993,  -147.619827
    958,   42.9504242,   238.873993,  -152.654877
    959,   27.5374737,   238.873993,  -156.172791
    960,   11.8508482,   238.873993,  -158.138565
    961,  -3.95355868,   238.873993,  -158.532715
    962,  -19.7186737,   238.873993,  -157.351273
    963,  -35.2878151,   238.873993,  -154.606018
    964,  -50.5062485,   238.873993,  -150.324219
    965,  -65.2227325,   238.873993,  -144.548416
    966,  -79.2910004,   238.873993,  -137.336044
    967,  -92.5712357,   238.873993,  -128.758759
    968,  -104.931465,   238.873993,  -118.901802
    969,  -116.248833,   238.873993,  -107.863152
    970,  -126.410866,   238.873993,  -95.7525101
    971,  -135.316574,   238.873993,   -82.690239
    972,  -142.877441,   238.873993,  -68.8061523
    973,  -149.018341,   238.873993,  -54.2382355
    974,  -153.678207,   238.873993,  -39.1312828
    975,  -156.810776,   238.873993,  -23.6354198
    976,  -158.384872,   238.873993,  -7.90466022
    977,  -158.384872,   238.873993,   7.90466022
    978,  -156.810776,   238.873993,   23.6354198
    979,  -153.678207,   238.873993,   39.1312828
    980,  -149.018341,   238.873993,   54.2382355
    981,  -142.877441,   238.873993,   68.8061523
    982,  -135.316574,   238.873993,    82.690239
    983,  -126.410866,   238.873993,   95.7525101
    984,  -116.248833,   238.873993,   107.863152
    985,  -104.931465,   238.873993,   118.901802
    986,  -92.5712357,   238.873993,   128.758759
    987,  -79.2910004,   238.873993,   137.336044
    988,  -65.2227325,   238.873993,   144.548416
    989,  -50.5062485,   238.873993,   150.324219
    990,  -35.2878151,   238.873993,   154.606018
    991,  -19.7186737,   238.873993,   157.351273
    992,  -3.95355868,   238.873993,   158.532715
    993,   11.8508482,   238.873993,   158.138565
    994,   27.5374737,   238.873993,   156.172791
    995,   42.9504242,   238.873993,   152.654877
    996,   57.9365082,   238.873993,   147.619827
    997,   72.3468018,   238.873993,   141.117645
    998,   86.0380707,   238.873993,   133.212997
    999,   98.8742599,   238.873993,   123.984398
   1000,   110.727791,   238.873993,   113.523598
   1001,   121.480858,   238.873993,   101.934547
   1002,   131.026596,   238.873993,   89.3324203
   1003,   139.270126,   238.873993,   75.8424759
   1004,   146.129547,   238.873993,   61.5987625
   1005,   151.536652,   238.873993,   46.7428665
   1006,   155.437714,   238.873993,    31.422411
   1007,   157.793976,   238.873993,   15.7896671
   1008,   158.582001,   238.873993,           0.
   1009,   157.793976,   254.798935,  -15.7896671
   1010,   155.437714,   254.798935,   -31.422411
   1011,   151.536652,   254.798935,  -46.7428665
   1012,   146.129547,   254.798935,  -61.5987625
   1013,   139.270126,   254.798935,  -75.8424759
   1014,   131.026596,   254.798935,  -89.3324203
   1015,   121.480858,   254.798935,  -101.934547
   1016,   110.727791,   254.798935,  -113.523598
   1017,   98.8742599,   254.798935,  -123.984398
   1018,   86.0380707,   254.798935,  -133.212997
   1019,   72.3468018,   254.798935,  -141.117645
   1020,   57.9365082,   254.798935,  -147.619827
   1021,   42.9504242,   254.798935,  -152.654877
   1022,   27.5374737,   254.798935,  -156.172791
   1023,   11.8508482,   254.798935,  -158.138565
   1024,  -3.95355868,   254.798935,  -158.532715
   1025,  -19.7186737,   254.798935,  -157.351273
   1026,  -35.2878151,   254.798935,  -154.606018
   1027,  -50.5062485,   254.798935,  -150.324219
   1028,  -65.2227325,   254.798935,  -144.548416
   1029,  -79.2910004,   254.798935,  -137.336044
   1030,  -92.5712357,   254.798935,  -128.758759
   1031,  -104.931465,   254.798935,  -118.901802
   1032,  -116.248833,   254.798935,  -107.863152
   1033,  -126.410866,   254.798935,  -95.7525101
   1034,  -135.316574,   254.798935,   -82.690239
   1035,  -142.877441,   254.798935,  -68.8061523
   1036,  -149.018341,   254.798935,  -54.2382355
   1037,  -153.678207,   254.798935,  -39.1312828
   1038,  -156.810776,   254.798935,  -23.6354198
   1039,  -158.384872,   254.798935,  -7.90466022
   1040,  -158.384872,   254.798935,   7.90466022
   1041,  -156.810776,   254.798935,   23.6354198
   1042,  -153.678207,   254.798935,   39.1312828
   1043,  -149.018341,   254.798935,   54.2382355
   1044,  -142.877441,   254.798935,   68.8061523
   1045,  -135.316574,   254.798935,    82.690239
   1046,  -126.410866,   254.798935,   95.7525101
   1047,  -116.248833,   254.798935,   107.863152
   1048,  -104.931465,   254.798935,   118.901802
   1049,  -92.5712357,   254.798935,   128.758759
   1050,  -79.2910004,   254.798935,   137.336044
   1051,  -65.2227325,   254.798935,   144.548416
   1052,  -50.5062485,   254.798935,   150.324219
   1053,  -35.2878151,   254.798935,   154.606018
   1054,  -19.7186737,   254.798935,   157.351273
   1055,  -3.95355868,   254.798935,   158.532715
   1056,   11.8508482,   254.798935,   158.138565
   1057,   27.5374737,   254.798935,   156.172791
   1058,   42.9504242,   254.798935,   152.654877
   1059,   57.9365082,   254.798935,   147.619827
   1060,   72.3468018,   254.798935,   141.117645
   1061,   86.0380707,   254.798935,   133.212997
   1062,   98.8742599,   254.798935,   123.984398
   1063,   110.727791,   254.798935,   113.523598
   1064,   121.480858,   254.798935,   101.934547
   1065,   131.026596,   254.798935,   89.3324203
   1066,   139.270126,   254.798935,   75.8424759
   1067,   146.129547,   254.798935,   61.5987625
   1068,   151.536652,   254.798935,   46.7428665
   1069,   155.437714,   254.798935,    31.422411
   1070,   157.793976,   254.798935,   15.7896671
   1071,   158.582001,   254.798935,           0.
   1072,   157.793976,   270.723877,  -15.7896671
   1073,   155.437714,   270.723877,   -31.422411
   1074,   151.536652,   270.723877,  -46.7428665
   1075,   146.129547,   270.723877,  -61.5987625
   1076,   139.270126,   270.723877,  -75.8424759
   1077,   131.026596,   270.723877,  -89.3324203
   1078,   121.480858,   270.723877,  -101.934547
   1079,   110.727791,   270.723877,  -113.523598
   1080,   98.8742599,   270.723877,  -123.984398
   1081,   86.0380707,   270.723877,  -133.212997
   1082,   72.3468018,   270.723877,  -141.117645
   1083,   57.9365082,   270.723877,  -147.619827
   1084,   42.9504242,   270.723877,  -152.654877
   1085,   27.5374737,   270.723877,  -156.172791
   1086,   11.8508482,   270.723877,  -158.138565
   1087,  -3.95355868,   270.723877,  -158.532715
   1088,  -19.7186737,   270.723877,  -157.351273
   1089,  -35.2878151,   270.723877,  -154.606018
   1090,  -50.5062485,   270.723877,  -150.324219
   1091,  -65.2227325,   270.723877,  -144.548416
   1092,  -79.2910004,   270.723877,  -137.336044
   1093,  -92.5712357,   270.723877,  -128.758759
   1094,  -104.931465,   270.723877,  -118.901802
   1095,  -116.248833,   270.723877,  -107.863152
   1096,  -126.410866,   270.723877,  -95.7525101
   1097,  -135.316574,   270.723877,   -82.690239
   1098,  -142.877441,   270.723877,  -68.8061523
   1099,  -149.018341,   270.723877,  -54.2382355
   1100,  -153.678207,   270.723877,  -39.1312828
   1101,  -156.810776,   270.723877,  -23.6354198
   1102,  -158.384872,   270.723877,  -7.90466022
   1103,  -158.384872,   270.723877,   7.90466022
   1104,  -156.810776,   270.723877,   23.6354198
   1105,  -153.678207,   270.723877,   39.1312828
   1106,  -149.018341,   270.723877,   54.2382355
   1107,  -142.877441,   270.723877,   68.8061523
   1108,  -135.316574,   270.723877,    82.690239
   1109,  -126.410866,   270.723877,   95.7525101
   1110,  -116.248833,   270.723877,   107.863152
   1111,  -104.931465,   270.723877,   118.901802
   1112,  -92.5712357,   270.723877,   128.758759
   1113,  -79.2910004,   270.723877,   137.336044
   1114,  -65.2227325,   270.723877,   144.548416
   1115,  -50.5062485,   270.723877,   150.324219
   1116,  -35.2878151,   270.723877,   154.606018
   1117,  -19.7186737,   270.723877,   157.351273
   1118,  -3.95355868,   270.723877,   158.532715
   1119,   11.8508482,   270.723877,   158.138565
   1120,   27.5374737,   270.723877,   156.172791
   1121,   42.9504242,   270.723877,   152.654877
   1122,   57.9365082,   270.723877,   147.619827
   1123,   72.3468018,   270.723877,   141.117645
   1124,   86.0380707,   270.723877,   133.212997
   1125,   98.8742599,   270.723877,   123.984398
   1126,   110.727791,   270.723877,   113.523598
   1127,   121.480858,   270.723877,   101.934547
   1128,   131.026596,   270.723877,   89.3324203
   1129,   139.270126,   270.723877,   75.8424759
   1130,   146.129547,   270.723877,   61.5987625
   1131,   151.536652,   270.723877,   46.7428665
   1132,   155.437714,   270.723877,    31.422411
   1133,   157.793976,   270.723877,   15.7896671
   1134,   158.582001,   270.723877,           0.
   1135,   157.793976,   286.648804,  -15.7896671
   1136,   155.437714,   286.648804,   -31.422411
   1137,   151.536652,   286.648804,  -46.7428665
   1138,   146.129547,   286.648804,  -61.5987625
   1139,   139.270126,   286.648804,  -75.8424759
   1140,   131.026596,   286.648804,  -89.3324203
   1141,   121.480858,   286.648804,  -101.934547
   1142,   110.727791,   286.648804,  -113.523598
   1143,   98.8742599,   286.648804,  -123.984398
   1144,   86.0380707,   286.648804,  -133.212997
   1145,   72.3468018,   286.648804,  -141.117645
   1146,   57.9365082,   286.648804,  -147.619827
   1147,   42.9504242,   286.648804,  -152.654877
   1148,   27.5374737,   286.648804,  -156.172791
   1149,   11.8508482,   286.648804,  -158.138565
   1150,  -3.95355868,   286.648804,  -158.532715
   1151,  -19.7186737,   286.648804,  -157.351273
   1152,  -35.2878151,   286.648804,  -154.606018
   1153,  -50.5062485,   286.648804,  -150.324219
   1154,  -65.2227325,   286.648804,  -144.548416
   1155,  -79.2910004,   286.648804,  -137.336044
   1156,  -92.5712357,   286.648804,  -128.758759
   1157,  -104.931465,   286.648804,  -118.901802
   1158,  -116.248833,   286.648804,  -107.863152
   1159,  -126.410866,   286.648804,  -95.7525101
   1160,  -135.316574,   286.648804,   -82.690239
   1161,  -142.877441,   286.648804,  -68.8061523
   1162,  -149.018341,   286.648804,  -54.2382355
   1163,  -153.678207,   286.648804,  -39.1312828
   1164,  -156.810776,   286.648804,  -23.6354198
   1165,  -158.384872,   286.648804,  -7.90466022
   1166,  -158.384872,   286.648804,   7.90466022
   1167,  -156.810776,   286.648804,   23.6354198
   1168,  -153.678207,   286.648804,   39.1312828
   1169,  -149.018341,   286.648804,   54.2382355
   1170,  -142.877441,   286.648804,   68.8061523
   1171,  -135.316574,   286.648804,    82.690239
   1172,  -126.410866,   286.648804,   95.7525101
   1173,  -116.248833,   286.648804,   107.863152
   1174,  -104.931465,   286.648804,   118.901802
   1175,  -92.5712357,   286.648804,   128.758759
   1176,  -79.2910004,   286.648804,   137.336044
   1177,  -65.2227325,   286.648804,   144.548416
   1178,  -50.5062485,   286.648804,   150.324219
   1179,  -35.2878151,   286.648804,   154.606018
   1180,  -19.7186737,   286.648804,   157.351273
   1181,  -3.95355868,   286.648804,   158.532715
   1182,   11.8508482,   286.648804,   158.138565
   1183,   27.5374737,   286.648804,   156.172791
   1184,   42.9504242,   286.648804,   152.654877
   1185,   57.9365082,   286.648804,   147.619827
   1186,   72.3468018,   286.648804,   141.117645
   1187,   86.0380707,   286.648804,   133.212997
   1188,   98.8742599,   286.648804,   123.984398
   1189,   110.727791,   286.648804,   113.523598
   1190,   121.480858,   286.648804,   101.934547
   1191,   131.026596,   286.648804,   89.3324203
   1192,   139.270126,   286.648804,   75.8424759
   1193,   146.129547,   286.648804,   61.5987625
   1194,   151.536652,   286.648804,   46.7428665
   1195,   155.437714,   286.648804,    31.422411
   1196,   157.793976,   286.648804,   15.7896671
   1197,   158.582001,   286.648804,           0.
   1198,   157.793976,    302.57373,  -15.7896671
   1199,   155.437714,    302.57373,   -31.422411
   1200,   151.536652,    302.57373,  -46.7428665
   1201,   146.129547,    302.57373,  -61.5987625
   1202,   139.270126,    302.57373,  -75.8424759
   1203,   131.026596,    302.57373,  -89.3324203
   1204,   121.480858,    302.57373,  -101.934547
   1205,   110.727791,    302.57373,  -113.523598
   1206,   98.8742599,    302.57373,  -123.984398
   1207,   86.0380707,    302.57373,  -133.212997
   1208,   72.3468018,    302.57373,  -141.117645
   1209,   57.9365082,    302.57373,  -147.619827
   1210,   42.9504242,    302.57373,  -152.654877
   1211,   27.5374737,    302.57373,  -156.172791
   1212,   11.8508482,    302.57373,  -158.138565
   1213,  -3.95355868,    302.57373,  -158.532715
   1214,  -19.7186737,    302.57373,  -157.351273
   1215,  -35.2878151,    302.57373,  -154.606018
   1216,  -50.5062485,    302.57373,  -150.324219
   1217,  -65.2227325,    302.57373,  -144.548416
   1218,  -79.2910004,    302.57373,  -137.336044
   1219,  -92.5712357,    302.57373,  -128.758759
   1220,  -104.931465,    302.57373,  -118.901802
   1221,  -116.248833,    302.57373,  -107.863152
   1222,  -126.410866,    302.57373,  -95.7525101
   1223,  -135.316574,    302.57373,   -82.690239
   1224,  -142.877441,    302.57373,  -68.8061523
   1225,  -149.018341,    302.57373,  -54.2382355
   1226,  -153.678207,    302.57373,  -39.1312828
   1227,  -156.810776,    302.57373,  -23.6354198
   1228,  -158.384872,    302.57373,  -7.90466022
   1229,  -158.384872,    302.57373,   7.90466022
   1230,  -156.810776,    302.57373,   23.6354198
   1231,  -153.678207,    302.57373,   39.1312828
   1232,  -149.018341,    302.57373,   54.2382355
   1233,  -142.877441,    302.57373,   68.8061523
   1234,  -135.316574,    302.57373,    82.690239
   1235,  -126.410866,    302.57373,   95.7525101
   1236,  -116.248833,    302.57373,   107.863152
   1237,  -104.931465,    302.57373,   118.901802
   1238,  -92.5712357,    302.57373,   128.758759
   1239,  -79.2910004,    302.57373,   137.336044
   1240,  -65.2227325,    302.57373,   144.548416
   1241,  -50.5062485,    302.57373,   150.324219
   1242,  -35.2878151,    302.57373,   154.606018
   1243,  -19.7186737,    302.57373,   157.351273
   1244,  -3.95355868,    302.57373,   158.532715
   1245,   11.8508482,    302.57373,   158.138565
   1246,   27.5374737,    302.57373,   156.172791
   1247,   42.9504242,    302.57373,   152.654877
   1248,   57.9365082,    302.57373,   147.619827
   1249,   72.3468018,    302.57373,   141.117645
   1250,   86.0380707,    302.57373,   133.212997
   1251,   98.8742599,    302.57373,   123.984398
   1252,   110.727791,    302.57373,   113.523598
   1253,   121.480858,    302.57373,   101.934547
   1254,   131.026596,    302.57373,   89.3324203
   1255,   139.270126,    302.57373,   75.8424759
   1256,   146.129547,    302.57373,   61.5987625
   1257,   151.536652,    302.57373,   46.7428665
   1258,   155.437714,    302.57373,    31.422411
   1259,   157.793976,    302.57373,   15.7896671
   1260,   158.582001,    302.57373,           0.
   1261,   157.793976,   318.498657,  -15.7896671
   1262,   155.437714,   318.498657,   -31.422411
   1263,   151.536652,   318.498657,  -46.7428665
   1264,   146.129547,   318.498657,  -61.5987625
   1265,   139.270126,   318.498657,  -75.8424759
   1266,   131.026596,   318.498657,  -89.3324203
   1267,   121.480858,   318.498657,  -101.934547
   1268,   110.727791,   318.498657,  -113.523598
   1269,   98.8742599,   318.498657,  -123.984398
   1270,   86.0380707,   318.498657,  -133.212997
   1271,   72.3468018,   318.498657,  -141.117645
   1272,   57.9365082,   318.498657,  -147.619827
   1273,   42.9504242,   318.498657,  -152.654877
   1274,   27.5374737,   318.498657,  -156.172791
   1275,   11.8508482,   318.498657,  -158.138565
   1276,  -3.95355868,   318.498657,  -158.532715
   1277,  -19.7186737,   318.498657,  -157.351273
   1278,  -35.2878151,   318.498657,  -154.606018
   1279,  -50.5062485,   318.498657,  -150.324219
   1280,  -65.2227325,   318.498657,  -144.548416
   1281,  -79.2910004,   318.498657,  -137.336044
   1282,  -92.5712357,   318.498657,  -128.758759
   1283,  -104.931465,   318.498657,  -118.901802
   1284,  -116.248833,   318.498657,  -107.863152
   1285,  -126.410866,   318.498657,  -95.7525101
   1286,  -135.316574,   318.498657,   -82.690239
   1287,  -142.877441,   318.498657,  -68.8061523
   1288,  -149.018341,   318.498657,  -54.2382355
   1289,  -153.678207,   318.498657,  -39.1312828
   1290,  -156.810776,   318.498657,  -23.6354198
   1291,  -158.384872,   318.498657,  -7.90466022
   1292,  -158.384872,   318.498657,   7.90466022
   1293,  -156.810776,   318.498657,   23.6354198
   1294,  -153.678207,   318.498657,   39.1312828
   1295,  -149.018341,   318.498657,   54.2382355
   1296,  -142.877441,   318.498657,   68.8061523
   1297,  -135.316574,   318.498657,    82.690239
   1298,  -126.410866,   318.498657,   95.7525101
   1299,  -116.248833,   318.498657,   107.863152
   1300,  -104.931465,   318.498657,   118.901802
   1301,  -92.5712357,   318.498657,   128.758759
   1302,  -79.2910004,   318.498657,   137.336044
   1303,  -65.2227325,   318.498657,   144.548416
   1304,  -50.5062485,   318.498657,   150.324219
   1305,  -35.2878151,   318.498657,   154.606018
   1306,  -19.7186737,   318.498657,   157.351273
   1307,  -3.95355868,   318.498657,   158.532715
   1308,   11.8508482,   318.498657,   158.138565
   1309,   27.5374737,   318.498657,   156.172791
   1310,   42.9504242,   318.498657,   152.654877
   1311,   57.9365082,   318.498657,   147.619827
   1312,   72.3468018,   318.498657,   141.117645
   1313,   86.0380707,   318.498657,   133.212997
   1314,   98.8742599,   318.498657,   123.984398
   1315,   110.727791,   318.498657,   113.523598
   1316,   121.480858,   318.498657,   101.934547
   1317,   131.026596,   318.498657,   89.3324203
   1318,   139.270126,   318.498657,   75.8424759
   1319,   146.129547,   318.498657,   61.5987625
   1320,   151.536652,   318.498657,   46.7428665
   1321,   155.437714,   318.498657,    31.422411
   1322,   157.793976,   318.498657,   15.7896671
   1323,   158.582001,   318.498657,           0.
   1324,   157.793976,   334.423615,  -15.7896671
   1325,   155.437714,   334.423615,   -31.422411
   1326,   151.536652,   334.423615,  -46.7428665
   1327,   146.129547,   334.423615,  -61.5987625
   1328,   139.270126,   334.423615,  -75.8424759
   1329,   131.026596,   334.423615,  -89.3324203
   1330,   121.480858,   334.423615,  -101.934547
   1331,   110.727791,   334.423615,  -113.523598
   1332,   98.8742599,   334.423615,  -123.984398
   1333,   86.0380707,   334.423615,  -133.212997
   1334,   72.3468018,   334.423615,  -141.117645
   1335,   57.9365082,   334.423615,  -147.619827
   1336,   42.9504242,   334.423615,  -152.654877
   1337,   27.5374737,   334.423615,  -156.172791
   1338,   11.8508482,   334.423615,  -158.138565
   1339,  -3.95355868,   334.423615,  -158.532715
   1340,  -19.7186737,   334.423615,  -157.351273
   1341,  -35.2878151,   334.423615,  -154.606018
   1342,  -50.5062485,   334.423615,  -150.324219
   1343,  -65.2227325,   334.423615,  -144.548416
   1344,  -79.2910004,   334.423615,  -137.336044
   1345,  -92.5712357,   334.423615,  -128.758759
   1346,  -104.931465,   334.423615,  -118.901802
   1347,  -116.248833,   334.423615,  -107.863152
   1348,  -126.410866,   334.423615,  -95.7525101
   1349,  -135.316574,   334.423615,   -82.690239
   1350,  -142.877441,   334.423615,  -68.8061523
   1351,  -149.018341,   334.423615,  -54.2382355
   1352,  -153.678207,   334.423615,  -39.1312828
   1353,  -156.810776,   334.423615,  -23.6354198
   1354,  -158.384872,   334.423615,  -7.90466022
   1355,  -158.384872,   334.423615,   7.90466022
   1356,  -156.810776,   334.423615,   23.6354198
   1357,  -153.678207,   334.423615,   39.1312828
   1358,  -149.018341,   334.423615,   54.2382355
   1359,  -142.877441,   334.423615,   68.8061523
   1360,  -135.316574,   334.423615,    82.690239
   1361,  -126.410866,   334.423615,   95.7525101
   1362,  -116.248833,   334.423615,   107.863152
   1363,  -104.931465,   334.423615,   118.901802
   1364,  -92.5712357,   334.423615,   128.758759
   1365,  -79.2910004,   334.423615,   137.336044
   1366,  -65.2227325,   334.423615,   144.548416
   1367,  -50.5062485,   334.423615,   150.324219
   1368,  -35.2878151,   334.423615,   154.606018
   1369,  -19.7186737,   334.423615,   157.351273
   1370,  -3.95355868,   334.423615,   158.532715
   1371,   11.8508482,   334.423615,   158.138565
   1372,   27.5374737,   334.423615,   156.172791
   1373,   42.9504242,   334.423615,   152.654877
   1374,   57.9365082,   334.423615,   147.619827
   1375,   72.3468018,   334.423615,   141.117645
   1376,   86.0380707,   334.423615,   133.212997
   1377,   98.8742599,   334.423615,   123.984398
   1378,   110.727791,   334.423615,   113.523598
   1379,   121.480858,   334.423615,   101.934547
   1380,   131.026596,   334.423615,   89.3324203
   1381,   139.270126,   334.423615,   75.8424759
   1382,   146.129547,   334.423615,   61.5987625
   1383,   151.536652,   334.423615,   46.7428665
   1384,   155.437714,   334.423615,    31.422411
   1385,   157.793976,   334.423615,   15.7896671
   1386,   158.582001,   334.423615,           0.
   1387,   157.793976,   350.348541,  -15.7896671
   1388,   155.437714,   350.348541,   -31.422411
   1389,   151.536652,   350.348541,  -46.7428665
   1390,   146.129547,   350.348541,  -61.5987625
   1391,   139.270126,   350.348541,  -75.8424759
   1392,   131.026596,   350.348541,  -89.3324203
   1393,   121.480858,   350.348541,  -101.934547
   1394,   110.727791,   350.348541,  -113.523598
   1395,   98.8742599,   350.348541,  -123.984398
   1396,   86.0380707,   350.348541,  -133.212997
   1397,   72.3468018,   350.348541,  -141.117645
   1398,   57.9365082,   350.348541,  -147.619827
   1399,   42.9504242,   350.348541,  -152.654877
   1400,   27.5374737,   350.348541,  -156.172791
   1401,   11.8508482,   350.348541,  -158.138565
   1402,  -3.95355868,   350.348541,  -158.532715
   1403,  -19.7186737,   350.348541,  -157.351273
   1404,  -35.2878151,   350.348541,  -154.606018
   1405,  -50.5062485,   350.348541,  -150.324219
   1406,  -65.2227325,   350.348541,  -144.548416
   1407,  -79.2910004,   350.348541,  -137.336044
   1408,  -92.5712357,   350.348541,  -128.758759
   1409,  -104.931465,   350.348541,  -118.901802
   1410,  -116.248833,   350.348541,  -107.863152
   1411,  -126.410866,   350.348541,  -95.7525101
   1412,  -135.316574,   350.348541,   -82.690239
   1413,  -142.877441,   350.348541,  -68.8061523
   1414,  -149.018341,   350.348541,  -54.2382355
   1415,  -153.678207,   350.348541,  -39.1312828
   1416,  -156.810776,   350.348541,  -23.6354198
   1417,  -158.384872,   350.348541,  -7.90466022
   1418,  -158.384872,   350.348541,   7.90466022
   1419,  -156.810776,   350.348541,   23.6354198
   1420,  -153.678207,   350.348541,   39.1312828
   1421,  -149.018341,   350.348541,   54.2382355
   1422,  -142.877441,   350.348541,   68.8061523
   1423,  -135.316574,   350.348541,    82.690239
   1424,  -126.410866,   350.348541,   95.7525101
   1425,  -116.248833,   350.348541,   107.863152
   1426,  -104.931465,   350.348541,   118.901802
   1427,  -92.5712357,   350.348541,   128.758759
   1428,  -79.2910004,   350.348541,   137.336044
   1429,  -65.2227325,   350.348541,   144.548416
   1430,  -50.5062485,   350.348541,   150.324219
   1431,  -35.2878151,   350.348541,   154.606018
   1432,  -19.7186737,   350.348541,   157.351273
   1433,  -3.95355868,   350.348541,   158.532715
   1434,   11.8508482,   350.348541,   158.138565
   1435,   27.5374737,   350.348541,   156.172791
   1436,   42.9504242,   350.348541,   152.654877
   1437,   57.9365082,   350.348541,   147.619827
   1438,   72.3468018,   350.348541,   141.117645
   1439,   86.0380707,   350.348541,   133.212997
   1440,   98.8742599,   350.348541,   123.984398
   1441,   110.727791,   350.348541,   113.523598
   1442,   121.480858,   350.348541,   101.934547
   1443,   131.026596,   350.348541,   89.3324203
   1444,   139.270126,   350.348541,   75.8424759
   1445,   146.129547,   350.348541,   61.5987625
   1446,   151.536652,   350.348541,   46.7428665
   1447,   155.437714,   350.348541,    31.422411
   1448,   157.793976,   350.348541,   15.7896671
   1449,   158.582001,   350.348541,           0.
   1450,   157.793976,   366.273468,  -15.7896671
   1451,   155.437714,   366.273468,   -31.422411
   1452,   151.536652,   366.273468,  -46.7428665
   1453,   146.129547,   366.273468,  -61.5987625
   1454,   139.270126,   366.273468,  -75.8424759
   1455,   131.026596,   366.273468,  -89.3324203
   1456,   121.480858,   366.273468,  -101.934547
   1457,   110.727791,   366.273468,  -113.523598
   1458,   98.8742599,   366.273468,  -123.984398
   1459,   86.0380707,   366.273468,  -133.212997
   1460,   72.3468018,   366.273468,  -141.117645
   1461,   57.9365082,   366.273468,  -147.619827
   1462,   42.9504242,   366.273468,  -152.654877
   1463,   27.5374737,   366.273468,  -156.172791
   1464,   11.8508482,   366.273468,  -158.138565
   1465,  -3.95355868,   366.273468,  -158.532715
   1466,  -19.7186737,   366.273468,  -157.351273
   1467,  -35.2878151,   366.273468,  -154.606018
   1468,  -50.5062485,   366.273468,  -150.324219
   1469,  -65.2227325,   366.273468,  -144.548416
   1470,  -79.2910004,   366.273468,  -137.336044
   1471,  -92.5712357,   366.273468,  -128.758759
   1472,  -104.931465,   366.273468,  -118.901802
   1473,  -116.248833,   366.273468,  -107.863152
   1474,  -126.410866,   366.273468,  -95.7525101
   1475,  -135.316574,   366.273468,   -82.690239
   1476,  -142.877441,   366.273468,  -68.8061523
   1477,  -149.018341,   366.273468,  -54.2382355
   1478,  -153.678207,   366.273468,  -39.1312828
   1479,  -156.810776,   366.273468,  -23.6354198
   1480,  -158.384872,   366.273468,  -7.90466022
   1481,  -158.384872,   366.273468,   7.90466022
   1482,  -156.810776,   366.273468,   23.6354198
   1483,  -153.678207,   366.273468,   39.1312828
   1484,  -149.018341,   366.273468,   54.2382355
   1485,  -142.877441,   366.273468,   68.8061523
   1486,  -135.316574,   366.273468,    82.690239
   1487,  -126.410866,   366.273468,   95.7525101
   1488,  -116.248833,   366.273468,   107.863152
   1489,  -104.931465,   366.273468,   118.901802
   1490,  -92.5712357,   366.273468,   128.758759
   1491,  -79.2910004,   366.273468,   137.336044
   1492,  -65.2227325,   366.273468,   144.548416
   1493,  -50.5062485,   366.273468,   150.324219
   1494,  -35.2878151,   366.273468,   154.606018
   1495,  -19.7186737,   366.273468,   157.351273
   1496,  -3.95355868,   366.273468,   158.532715
   1497,   11.8508482,   366.273468,   158.138565
   1498,   27.5374737,   366.273468,   156.172791
   1499,   42.9504242,   366.273468,   152.654877
   1500,   57.9365082,   366.273468,   147.619827
   1501,   72.3468018,   366.273468,   141.117645
   1502,   86.0380707,   366.273468,   133.212997
   1503,   98.8742599,   366.273468,   123.984398
   1504,   110.727791,   366.273468,   113.523598
   1505,   121.480858,   366.273468,   101.934547
   1506,   131.026596,   366.273468,   89.3324203
   1507,   139.270126,   366.273468,   75.8424759
   1508,   146.129547,   366.273468,   61.5987625
   1509,   151.536652,   366.273468,   46.7428665
   1510,   155.437714,   366.273468,    31.422411
   1511,   157.793976,   366.273468,   15.7896671
   1512,   158.582001,   366.273468,           0.
   1513,   157.793976,   382.198395,  -15.7896671
   1514,   155.437714,   382.198395,   -31.422411
   1515,   151.536652,   382.198395,  -46.7428665
   1516,   146.129547,   382.198395,  -61.5987625
   1517,   139.270126,   382.198395,  -75.8424759
   1518,   131.026596,   382.198395,  -89.3324203
   1519,   121.480858,   382.198395,  -101.934547
   1520,   110.727791,   382.198395,  -113.523598
   1521,   98.8742599,   382.198395,  -123.984398
   1522,   86.0380707,   382.198395,  -133.212997
   1523,   72.3468018,   382.198395,  -141.117645
   1524,   57.9365082,   382.198395,  -147.619827
   1525,   42.9504242,   382.198395,  -152.654877
   1526,   27.5374737,   382.198395,  -156.172791
   1527,   11.8508482,   382.198395,  -158.138565
   1528,  -3.95355868,   382.198395,  -158.532715
   1529,  -19.7186737,   382.198395,  -157.351273
   1530,  -35.2878151,   382.198395,  -154.606018
   1531,  -50.5062485,   382.198395,  -150.324219
   1532,  -65.2227325,   382.198395,  -144.548416
   1533,  -79.2910004,   382.198395,  -137.336044
   1534,  -92.5712357,   382.198395,  -128.758759
   1535,  -104.931465,   382.198395,  -118.901802
   1536,  -116.248833,   382.198395,  -107.863152
   1537,  -126.410866,   382.198395,  -95.7525101
   1538,  -135.316574,   382.198395,   -82.690239
   1539,  -142.877441,   382.198395,  -68.8061523
   1540,  -149.018341,   382.198395,  -54.2382355
   1541,  -153.678207,   382.198395,  -39.1312828
   1542,  -156.810776,   382.198395,  -23.6354198
   1543,  -158.384872,   382.198395,  -7.90466022
   1544,  -158.384872,   382.198395,   7.90466022
   1545,  -156.810776,   382.198395,   23.6354198
   1546,  -153.678207,   382.198395,   39.1312828
   1547,  -149.018341,   382.198395,   54.2382355
   1548,  -142.877441,   382.198395,   68.8061523
   1549,  -135.316574,   382.198395,    82.690239
   1550,  -126.410866,   382.198395,   95.7525101
   1551,  -116.248833,   382.198395,   107.863152
   1552,  -104.931465,   382.198395,   118.901802
   1553,  -92.5712357,   382.198395,   128.758759
   1554,  -79.2910004,   382.198395,   137.336044
   1555,  -65.2227325,   382.198395,   144.548416
   1556,  -50.5062485,   382.198395,   150.324219
   1557,  -35.2878151,   382.198395,   154.606018
   1558,  -19.7186737,   382.198395,   157.351273
   1559,  -3.95355868,   382.198395,   158.532715
   1560,   11.8508482,   382.198395,   158.138565
   1561,   27.5374737,   382.198395,   156.172791
   1562,   42.9504242,   382.198395,   152.654877
   1563,   57.9365082,   382.198395,   147.619827
   1564,   72.3468018,   382.198395,   141.117645
   1565,   86.0380707,   382.198395,   133.212997
   1566,   98.8742599,   382.198395,   123.984398
   1567,   110.727791,   382.198395,   113.523598
   1568,   121.480858,   382.198395,   101.934547
   1569,   131.026596,   382.198395,   89.3324203
   1570,   139.270126,   382.198395,   75.8424759
   1571,   146.129547,   382.198395,   61.5987625
   1572,   151.536652,   382.198395,   46.7428665
   1573,   155.437714,   382.198395,    31.422411
   1574,   157.793976,   382.198395,   15.7896671
   1575,   158.582001,   382.198395,           0.
   1576,   157.793976,   398.123322,  -15.7896671
   1577,   155.437714,   398.123322,   -31.422411
   1578,   151.536652,   398.123322,  -46.7428665
   1579,   146.129547,   398.123322,  -61.5987625
   1580,   139.270126,   398.123322,  -75.8424759
   1581,   131.026596,   398.123322,  -89.3324203
   1582,   121.480858,   398.123322,  -101.934547
   1583,   110.727791,   398.123322,  -113.523598
   1584,   98.8742599,   398.123322,  -123.984398
   1585,   86.0380707,   398.123322,  -133.212997
   1586,   72.3468018,   398.123322,  -141.117645
   1587,   57.9365082,   398.123322,  -147.619827
   1588,   42.9504242,   398.123322,  -152.654877
   1589,   27.5374737,   398.123322,  -156.172791
   1590,   11.8508482,   398.123322,  -158.138565
   1591,  -3.95355868,   398.123322,  -158.532715
   1592,  -19.7186737,   398.123322,  -157.351273
   1593,  -35.2878151,   398.123322,  -154.606018
   1594,  -50.5062485,   398.123322,  -150.324219
   1595,  -65.2227325,   398.123322,  -144.548416
   1596,  -79.2910004,   398.123322,  -137.336044
   1597,  -92.5712357,   398.123322,  -128.758759
   1598,  -104.931465,   398.123322,  -118.901802
   1599,  -116.248833,   398.123322,  -107.863152
   1600,  -126.410866,   398.123322,  -95.7525101
   1601,  -135.316574,   398.123322,   -82.690239
   1602,  -142.877441,   398.123322,  -68.8061523
   1603,  -149.018341,   398.123322,  -54.2382355
   1604,  -153.678207,   398.123322,  -39.1312828
   1605,  -156.810776,   398.123322,  -23.6354198
   1606,  -158.384872,   398.123322,  -7.90466022
   1607,  -158.384872,   398.123322,   7.90466022
   1608,  -156.810776,   398.123322,   23.6354198
   1609,  -153.678207,   398.123322,   39.1312828
   1610,  -149.018341,   398.123322,   54.2382355
   1611,  -142.877441,   398.123322,   68.8061523
   1612,  -135.316574,   398.123322,    82.690239
   1613,  -126.410866,   398.123322,   95.7525101
   1614,  -116.248833,   398.123322,   107.863152
   1615,  -104.931465,   398.123322,   118.901802
   1616,  -92.5712357,   398.123322,   128.758759
   1617,  -79.2910004,   398.123322,   137.336044
   1618,  -65.2227325,   398.123322,   144.548416
   1619,  -50.5062485,   398.123322,   150.324219
   1620,  -35.2878151,   398.123322,   154.606018
   1621,  -19.7186737,   398.123322,   157.351273
   1622,  -3.95355868,   398.123322,   158.532715
   1623,   11.8508482,   398.123322,   158.138565
   1624,   27.5374737,   398.123322,   156.172791
   1625,   42.9504242,   398.123322,   152.654877
   1626,   57.9365082,   398.123322,   147.619827
   1627,   72.3468018,   398.123322,   141.117645
   1628,   86.0380707,   398.123322,   133.212997
   1629,   98.8742599,   398.123322,   123.984398
   1630,   110.727791,   398.123322,   113.523598
   1631,   121.480858,   398.123322,   101.934547
   1632,   131.026596,   398.123322,   89.3324203
   1633,   139.270126,   398.123322,   75.8424759
   1634,   146.129547,   398.123322,   61.5987625
   1635,   151.536652,   398.123322,   46.7428665
   1636,   155.437714,   398.123322,    31.422411
   1637,   157.793976,   398.123322,   15.7896671
   1638,   158.582001,   398.123322,           0.
   1639,   157.793976,   414.048279,  -15.7896671
   1640,   155.437714,   414.048279,   -31.422411
   1641,   151.536652,   414.048279,  -46.7428665
   1642,   146.129547,   414.048279,  -61.5987625
   1643,   139.270126,   414.048279,  -75.8424759
   1644,   131.026596,   414.048279,  -89.3324203
   1645,   121.480858,   414.048279,  -101.934547
   1646,   110.727791,   414.048279,  -113.523598
   1647,   98.8742599,   414.048279,  -123.984398
   1648,   86.0380707,   414.048279,  -133.212997
   1649,   72.3468018,   414.048279,  -141.117645
   1650,   57.9365082,   414.048279,  -147.619827
   1651,   42.9504242,   414.048279,  -152.654877
   1652,   27.5374737,   414.048279,  -156.172791
   1653,   11.8508482,   414.048279,  -158.138565
   1654,  -3.95355868,   414.048279,  -158.532715
   1655,  -19.7186737,   414.048279,  -157.351273
   1656,  -35.2878151,   414.048279,  -154.606018
   1657,  -50.5062485,   414.048279,  -150.324219
   1658,  -65.2227325,   414.048279,  -144.548416
   1659,  -79.2910004,   414.048279,  -137.336044
   1660,  -92.5712357,   414.048279,  -128.758759
   1661,  -104.931465,   414.048279,  -118.901802
   1662,  -116.248833,   414.048279,  -107.863152
   1663,  -126.410866,   414.048279,  -95.7525101
   1664,  -135.316574,   414.048279,   -82.690239
   1665,  -142.877441,   414.048279,  -68.8061523
   1666,  -149.018341,   414.048279,  -54.2382355
   1667,  -153.678207,   414.048279,  -39.1312828
   1668,  -156.810776,   414.048279,  -23.6354198
   1669,  -158.384872,   414.048279,  -7.90466022
   1670,  -158.384872,   414.048279,   7.90466022
   1671,  -156.810776,   414.048279,   23.6354198
   1672,  -153.678207,   414.048279,   39.1312828
   1673,  -149.018341,   414.048279,   54.2382355
   1674,  -142.877441,   414.048279,   68.8061523
   1675,  -135.316574,   414.048279,    82.690239
   1676,  -126.410866,   414.048279,   95.7525101
   1677,  -116.248833,   414.048279,   107.863152
   1678,  -104.931465,   414.048279,   118.901802
   1679,  -92.5712357,   414.048279,   128.758759
   1680,  -79.2910004,   414.048279,   137.336044
   1681,  -65.2227325,   414.048279,   144.548416
   1682,  -50.5062485,   414.048279,   150.324219
   1683,  -35.2878151,   414.048279,   154.606018
   1684,  -19.7186737,   414.048279,   157.351273
   1685,  -3.95355868,   414.048279,   158.532715
   1686,   11.8508482,   414.048279,   158.138565
   1687,   27.5374737,   414.048279,   156.172791
   1688,   42.9504242,   414.048279,   152.654877
   1689,   57.9365082,   414.048279,   147.619827
   1690,   72.3468018,   414.048279,   141.117645
   1691,   86.0380707,   414.048279,   133.212997
   1692,   98.8742599,   414.048279,   123.984398
   1693,   110.727791,   414.048279,   113.523598
   1694,   121.480858,   414.048279,   101.934547
   1695,   131.026596,   414.048279,   89.3324203
   1696,   139.270126,   414.048279,   75.8424759
   1697,   146.129547,   414.048279,   61.5987625
   1698,   151.536652,   414.048279,   46.7428665
   1699,   155.437714,   414.048279,    31.422411
   1700,   157.793976,   414.048279,   15.7896671
   1701,   158.582001,   414.048279,           0.
   1702,   157.793976,   429.973206,  -15.7896671
   1703,   155.437714,   429.973206,   -31.422411
   1704,   151.536652,   429.973206,  -46.7428665
   1705,   146.129547,   429.973206,  -61.5987625
   1706,   139.270126,   429.973206,  -75.8424759
   1707,   131.026596,   429.973206,  -89.3324203
   1708,   121.480858,   429.973206,  -101.934547
   1709,   110.727791,   429.973206,  -113.523598
   1710,   98.8742599,   429.973206,  -123.984398
   1711,   86.0380707,   429.973206,  -133.212997
   1712,   72.3468018,   429.973206,  -141.117645
   1713,   57.9365082,   429.973206,  -147.619827
   1714,   42.9504242,   429.973206,  -152.654877
   1715,   27.5374737,   429.973206,  -156.172791
   1716,   11.8508482,   429.973206,  -158.138565
   1717,  -3.95355868,   429.973206,  -158.532715
   1718,  -19.7186737,   429.973206,  -157.351273
   1719,  -35.2878151,   429.973206,  -154.606018
   1720,  -50.5062485,   429.973206,  -150.324219
   1721,  -65.2227325,   429.973206,  -144.548416
   1722,  -79.2910004,   429.973206,  -137.336044
   1723,  -92.5712357,   429.973206,  -128.758759
   1724,  -104.931465,   429.973206,  -118.901802
   1725,  -116.248833,   429.973206,  -107.863152
   1726,  -126.410866,   429.973206,  -95.7525101
   1727,  -135.316574,   429.973206,   -82.690239
   1728,  -142.877441,   429.973206,  -68.8061523
   1729,  -149.018341,   429.973206,  -54.2382355
   1730,  -153.678207,   429.973206,  -39.1312828
   1731,  -156.810776,   429.973206,  -23.6354198
   1732,  -158.384872,   429.973206,  -7.90466022
   1733,  -158.384872,   429.973206,   7.90466022
   1734,  -156.810776,   429.973206,   23.6354198
   1735,  -153.678207,   429.973206,   39.1312828
   1736,  -149.018341,   429.973206,   54.2382355
   1737,  -142.877441,   429.973206,   68.8061523
   1738,  -135.316574,   429.973206,    82.690239
   1739,  -126.410866,   429.973206,   95.7525101
   1740,  -116.248833,   429.973206,   107.863152
   1741,  -104.931465,   429.973206,   118.901802
   1742,  -92.5712357,   429.973206,   128.758759
   1743,  -79.2910004,   429.973206,   137.336044
   1744,  -65.2227325,   429.973206,   144.548416
   1745,  -50.5062485,   429.973206,   150.324219
   1746,  -35.2878151,   429.973206,   154.606018
   1747,  -19.7186737,   429.973206,   157.351273
   1748,  -3.95355868,   429.973206,   158.532715
   1749,   11.8508482,   429.973206,   158.138565
   1750,   27.5374737,   429.973206,   156.172791
   1751,   42.9504242,   429.973206,   152.654877
   1752,   57.9365082,   429.973206,   147.619827
   1753,   72.3468018,   429.973206,   141.117645
   1754,   86.0380707,   429.973206,   133.212997
   1755,   98.8742599,   429.973206,   123.984398
   1756,   110.727791,   429.973206,   113.523598
   1757,   121.480858,   429.973206,   101.934547
   1758,   131.026596,   429.973206,   89.3324203
   1759,   139.270126,   429.973206,   75.8424759
   1760,   146.129547,   429.973206,   61.5987625
   1761,   151.536652,   429.973206,   46.7428665
   1762,   155.437714,   429.973206,    31.422411
   1763,   157.793976,   429.973206,   15.7896671
   1764,   158.582001,   429.973206,           0.
   1765,   157.793976,   445.898132,  -15.7896671
   1766,   155.437714,   445.898132,   -31.422411
   1767,   151.536652,   445.898132,  -46.7428665
   1768,   146.129547,   445.898132,  -61.5987625
   1769,   139.270126,   445.898132,  -75.8424759
   1770,   131.026596,   445.898132,  -89.3324203
   1771,   121.480858,   445.898132,  -101.934547
   1772,   110.727791,   445.898132,  -113.523598
   1773,   98.8742599,   445.898132,  -123.984398
   1774,   86.0380707,   445.898132,  -133.212997
   1775,   72.3468018,   445.898132,  -141.117645
   1776,   57.9365082,   445.898132,  -147.619827
   1777,   42.9504242,   445.898132,  -152.654877
   1778,   27.5374737,   445.898132,  -156.172791
   1779,   11.8508482,   445.898132,  -158.138565
   1780,  -3.95355868,   445.898132,  -158.532715
   1781,  -19.7186737,   445.898132,  -157.351273
   1782,  -35.2878151,   445.898132,  -154.606018
   1783,  -50.5062485,   445.898132,  -150.324219
   1784,  -65.2227325,   445.898132,  -144.548416
   1785,  -79.2910004,   445.898132,  -137.336044
   1786,  -92.5712357,   445.898132,  -128.758759
   1787,  -104.931465,   445.898132,  -118.901802
   1788,  -116.248833,   445.898132,  -107.863152
   1789,  -126.410866,   445.898132,  -95.7525101
   1790,  -135.316574,   445.898132,   -82.690239
   1791,  -142.877441,   445.898132,  -68.8061523
   1792,  -149.018341,   445.898132,  -54.2382355
   1793,  -153.678207,   445.898132,  -39.1312828
   1794,  -156.810776,   445.898132,  -23.6354198
   1795,  -158.384872,   445.898132,  -7.90466022
   1796,  -158.384872,   445.898132,   7.90466022
   1797,  -156.810776,   445.898132,   23.6354198
   1798,  -153.678207,   445.898132,   39.1312828
   1799,  -149.018341,   445.898132,   54.2382355
   1800,  -142.877441,   445.898132,   68.8061523
   1801,  -135.316574,   445.898132,    82.690239
   1802,  -126.410866,   445.898132,   95.7525101
   1803,  -116.248833,   445.898132,   107.863152
   1804,  -104.931465,   445.898132,   118.901802
   1805,  -92.5712357,   445.898132,   128.758759
   1806,  -79.2910004,   445.898132,   137.336044
   1807,  -65.2227325,   445.898132,   144.548416
   1808,  -50.5062485,   445.898132,   150.324219
   1809,  -35.2878151,   445.898132,   154.606018
   1810,  -19.7186737,   445.898132,   157.351273
   1811,  -3.95355868,   445.898132,   158.532715
   1812,   11.8508482,   445.898132,   158.138565
   1813,   27.5374737,   445.898132,   156.172791
   1814,   42.9504242,   445.898132,   152.654877
   1815,   57.9365082,   445.898132,   147.619827
   1816,   72.3468018,   445.898132,   141.117645
   1817,   86.0380707,   445.898132,   133.212997
   1818,   98.8742599,   445.898132,   123.984398
   1819,   110.727791,   445.898132,   113.523598
   1820,   121.480858,   445.898132,   101.934547
   1821,   131.026596,   445.898132,   89.3324203
   1822,   139.270126,   445.898132,   75.8424759
   1823,   146.129547,   445.898132,   61.5987625
   1824,   151.536652,   445.898132,   46.7428665
   1825,   155.437714,   445.898132,    31.422411
   1826,   157.793976,   445.898132,   15.7896671
   1827,   158.582001,   445.898132,           0.
   1828,   157.793976,   461.823059,  -15.7896671
   1829,   155.437714,   461.823059,   -31.422411
   1830,   151.536652,   461.823059,  -46.7428665
   1831,   146.129547,   461.823059,  -61.5987625
   1832,   139.270126,   461.823059,  -75.8424759
   1833,   131.026596,   461.823059,  -89.3324203
   1834,   121.480858,   461.823059,  -101.934547
   1835,   110.727791,   461.823059,  -113.523598
   1836,   98.8742599,   461.823059,  -123.984398
   1837,   86.0380707,   461.823059,  -133.212997
   1838,   72.3468018,   461.823059,  -141.117645
   1839,   57.9365082,   461.823059,  -147.619827
   1840,   42.9504242,   461.823059,  -152.654877
   1841,   27.5374737,   461.823059,  -156.172791
   1842,   11.8508482,   461.823059,  -158.138565
   1843,  -3.95355868,   461.823059,  -158.532715
   1844,  -19.7186737,   461.823059,  -157.351273
   1845,  -35.2878151,   461.823059,  -154.606018
   1846,  -50.5062485,   461.823059,  -150.324219
   1847,  -65.2227325,   461.823059,  -144.548416
   1848,  -79.2910004,   461.823059,  -137.336044
   1849,  -92.5712357,   461.823059,  -128.758759
   1850,  -104.931465,   461.823059,  -118.901802
   1851,  -116.248833,   461.823059,  -107.863152
   1852,  -126.410866,   461.823059,  -95.7525101
   1853,  -135.316574,   461.823059,   -82.690239
   1854,  -142.877441,   461.823059,  -68.8061523
   1855,  -149.018341,   461.823059,  -54.2382355
   1856,  -153.678207,   461.823059,  -39.1312828
   1857,  -156.810776,   461.823059,  -23.6354198
   1858,  -158.384872,   461.823059,  -7.90466022
   1859,  -158.384872,   461.823059,   7.90466022
   1860,  -156.810776,   461.823059,   23.6354198
   1861,  -153.678207,   461.823059,   39.1312828
   1862,  -149.018341,   461.823059,   54.2382355
   1863,  -142.877441,   461.823059,   68.8061523
   1864,  -135.316574,   461.823059,    82.690239
   1865,  -126.410866,   461.823059,   95.7525101
   1866,  -116.248833,   461.823059,   107.863152
   1867,  -104.931465,   461.823059,   118.901802
   1868,  -92.5712357,   461.823059,   128.758759
   1869,  -79.2910004,   461.823059,   137.336044
   1870,  -65.2227325,   461.823059,   144.548416
   1871,  -50.5062485,   461.823059,   150.324219
   1872,  -35.2878151,   461.823059,   154.606018
   1873,  -19.7186737,   461.823059,   157.351273
   1874,  -3.95355868,   461.823059,   158.532715
   1875,   11.8508482,   461.823059,   158.138565
   1876,   27.5374737,   461.823059,   156.172791
   1877,   42.9504242,   461.823059,   152.654877
   1878,   57.9365082,   461.823059,   147.619827
   1879,   72.3468018,   461.823059,   141.117645
   1880,   86.0380707,   461.823059,   133.212997
   1881,   98.8742599,   461.823059,   123.984398
   1882,   110.727791,   461.823059,   113.523598
   1883,   121.480858,   461.823059,   101.934547
   1884,   131.026596,   461.823059,   89.3324203
   1885,   139.270126,   461.823059,   75.8424759
   1886,   146.129547,   461.823059,   61.5987625
   1887,   151.536652,   461.823059,   46.7428665
   1888,   155.437714,   461.823059,    31.422411
   1889,   157.793976,   461.823059,   15.7896671
   1890,   158.582001,   461.823059,           0.
   1891,   157.793976,   477.747986,  -15.7896681
   1892,   155.437714,   477.747986,   -31.422411
   1893,   151.536652,   477.747986,  -46.7428665
   1894,   146.129547,   477.747986,  -61.5987663
   1895,   139.270126,   477.747986,  -75.8424759
   1896,   131.026596,   477.747986,  -89.3324203
   1897,   121.480858,   477.747986,  -101.934547
   1898,   110.727791,   477.747986,  -113.523598
   1899,   98.8742599,   477.747986,  -123.984398
   1900,   86.0380707,   477.747986,  -133.212997
   1901,   72.3468018,   477.747986,  -141.117645
   1902,    57.936512,   477.747986,  -147.619827
   1903,   42.9504242,   477.747986,  -152.654877
   1904,   27.5374756,   477.747986,  -156.172791
   1905,   11.8508472,   477.747986,  -158.138565
   1906,  -3.95355892,   477.747986,  -158.532715
   1907,  -19.7186737,   477.747986,  -157.351273
   1908,  -35.2878151,   477.747986,  -154.606018
   1909,  -50.5062485,   477.747986,  -150.324219
   1910,  -65.2227325,   477.747986,  -144.548416
   1911,  -79.2910004,   477.747986,  -137.336044
   1912,  -92.5712357,   477.747986,  -128.758759
   1913,  -104.931465,   477.747986,  -118.901802
   1914,  -116.248833,   477.747986,  -107.863152
   1915,  -126.410866,   477.747986,  -95.7525101
   1916,  -135.316574,   477.747986,   -82.690239
   1917,  -142.877441,   477.747986,  -68.8061523
   1918,  -149.018341,   477.747986,  -54.2382393
   1919,  -153.678207,   477.747986,  -39.1312828
   1920,  -156.810776,   477.747986,  -23.6354198
   1921,  -158.384872,   477.747986,  -7.90466022
   1922,  -158.384872,   477.747986,   7.90466022
   1923,  -156.810776,   477.747986,   23.6354198
   1924,  -153.678207,   477.747986,   39.1312828
   1925,  -149.018341,   477.747986,   54.2382393
   1926,  -142.877441,   477.747986,   68.8061523
   1927,  -135.316574,   477.747986,    82.690239
   1928,  -126.410866,   477.747986,   95.7525101
   1929,  -116.248833,   477.747986,   107.863152
   1930,  -104.931465,   477.747986,   118.901802
   1931,  -92.5712357,   477.747986,   128.758759
   1932,  -79.2910004,   477.747986,   137.336044
   1933,  -65.2227325,   477.747986,   144.548416
   1934,  -50.5062485,   477.747986,   150.324219
   1935,  -35.2878151,   477.747986,   154.606018
   1936,  -19.7186737,   477.747986,   157.351273
   1937,  -3.95355892,   477.747986,   158.532715
   1938,   11.8508472,   477.747986,   158.138565
   1939,   27.5374756,   477.747986,   156.172791
   1940,   42.9504242,   477.747986,   152.654877
   1941,    57.936512,   477.747986,   147.619827
   1942,   72.3468018,   477.747986,   141.117645
   1943,   86.0380707,   477.747986,   133.212997
   1944,   98.8742599,   477.747986,   123.984398
   1945,   110.727791,   477.747986,   113.523598
   1946,   121.480858,   477.747986,   101.934547
   1947,   131.026596,   477.747986,   89.3324203
   1948,   139.270126,   477.747986,   75.8424759
   1949,   146.129547,   477.747986,   61.5987663
   1950,   151.536652,   477.747986,   46.7428665
   1951,   155.437714,   477.747986,    31.422411
   1952,   157.793976,   477.747986,   15.7896681
   1953,   158.582001,   477.747986,           0.
*Element, type=S4R
   1,   63,    1,   64,  126
   2,    1,    2,   65,   64
   3,    2,    3,   66,   65
   4,    3,    4,   67,   66
   5,    4,    5,   68,   67
   6,    5,    6,   69,   68
   7,    6,    7,   70,   69
   8,    7,    8,   71,   70
   9,    8,    9,   72,   71
  10,    9,   10,   73,   72
  11,   10,   11,   74,   73
  12,   11,   12,   75,   74
  13,   12,   13,   76,   75
  14,   13,   14,   77,   76
  15,   14,   15,   78,   77
  16,   15,   16,   79,   78
  17,   16,   17,   80,   79
  18,   17,   18,   81,   80
  19,   18,   19,   82,   81
  20,   19,   20,   83,   82
  21,   20,   21,   84,   83
  22,   21,   22,   85,   84
  23,   22,   23,   86,   85
  24,   23,   24,   87,   86
  25,   24,   25,   88,   87
  26,   25,   26,   89,   88
  27,   26,   27,   90,   89
  28,   27,   28,   91,   90
  29,   28,   29,   92,   91
  30,   29,   30,   93,   92
  31,   30,   31,   94,   93
  32,   31,   32,   95,   94
  33,   32,   33,   96,   95
  34,   33,   34,   97,   96
  35,   34,   35,   98,   97
  36,   35,   36,   99,   98
  37,   36,   37,  100,   99
  38,   37,   38,  101,  100
  39,   38,   39,  102,  101
  40,   39,   40,  103,  102
  41,   40,   41,  104,  103
  42,   41,   42,  105,  104
  43,   42,   43,  106,  105
  44,   43,   44,  107,  106
  45,   44,   45,  108,  107
  46,   45,   46,  109,  108
  47,   46,   47,  110,  109
  48,   47,   48,  111,  110
  49,   48,   49,  112,  111
  50,   49,   50,  113,  112
  51,   50,   51,  114,  113
  52,   51,   52,  115,  114
  53,   52,   53,  116,  115
  54,   53,   54,  117,  116
  55,   54,   55,  118,  117
  56,   55,   56,  119,  118
  57,   56,   57,  120,  119
  58,   57,   58,  121,  120
  59,   58,   59,  122,  121
  60,   59,   60,  123,  122
  61,   60,   61,  124,  123
  62,   61,   62,  125,  124
  63,   62,   63,  126,  125
  64,  126,   64,  127,  189
  65,   64,   65,  128,  127
  66,   65,   66,  129,  128
  67,   66,   67,  130,  129
  68,   67,   68,  131,  130
  69,   68,   69,  132,  131
  70,   69,   70,  133,  132
  71,   70,   71,  134,  133
  72,   71,   72,  135,  134
  73,   72,   73,  136,  135
  74,   73,   74,  137,  136
  75,   74,   75,  138,  137
  76,   75,   76,  139,  138
  77,   76,   77,  140,  139
  78,   77,   78,  141,  140
  79,   78,   79,  142,  141
  80,   79,   80,  143,  142
  81,   80,   81,  144,  143
  82,   81,   82,  145,  144
  83,   82,   83,  146,  145
  84,   83,   84,  147,  146
  85,   84,   85,  148,  147
  86,   85,   86,  149,  148
  87,   86,   87,  150,  149
  88,   87,   88,  151,  150
  89,   88,   89,  152,  151
  90,   89,   90,  153,  152
  91,   90,   91,  154,  153
  92,   91,   92,  155,  154
  93,   92,   93,  156,  155
  94,   93,   94,  157,  156
  95,   94,   95,  158,  157
  96,   95,   96,  159,  158
  97,   96,   97,  160,  159
  98,   97,   98,  161,  160
  99,   98,   99,  162,  161
 100,   99,  100,  163,  162
 101,  100,  101,  164,  163
 102,  101,  102,  165,  164
 103,  102,  103,  166,  165
 104,  103,  104,  167,  166
 105,  104,  105,  168,  167
 106,  105,  106,  169,  168
 107,  106,  107,  170,  169
 108,  107,  108,  171,  170
 109,  108,  109,  172,  171
 110,  109,  110,  173,  172
 111,  110,  111,  174,  173
 112,  111,  112,  175,  174
 113,  112,  113,  176,  175
 114,  113,  114,  177,  176
 115,  114,  115,  178,  177
 116,  115,  116,  179,  178
 117,  116,  117,  180,  179
 118,  117,  118,  181,  180
 119,  118,  119,  182,  181
 120,  119,  120,  183,  182
 121,  120,  121,  184,  183
 122,  121,  122,  185,  184
 123,  122,  123,  186,  185
 124,  123,  124,  187,  186
 125,  124,  125,  188,  187
 126,  125,  126,  189,  188
 127,  189,  127,  190,  252
 128,  127,  128,  191,  190
 129,  128,  129,  192,  191
 130,  129,  130,  193,  192
 131,  130,  131,  194,  193
 132,  131,  132,  195,  194
 133,  132,  133,  196,  195
 134,  133,  134,  197,  196
 135,  134,  135,  198,  197
 136,  135,  136,  199,  198
 137,  136,  137,  200,  199
 138,  137,  138,  201,  200
 139,  138,  139,  202,  201
 140,  139,  140,  203,  202
 141,  140,  141,  204,  203
 142,  141,  142,  205,  204
 143,  142,  143,  206,  205
 144,  143,  144,  207,  206
 145,  144,  145,  208,  207
 146,  145,  146,  209,  208
 147,  146,  147,  210,  209
 148,  147,  148,  211,  210
 149,  148,  149,  212,  211
 150,  149,  150,  213,  212
 151,  150,  151,  214,  213
 152,  151,  152,  215,  214
 153,  152,  153,  216,  215
 154,  153,  154,  217,  216
 155,  154,  155,  218,  217
 156,  155,  156,  219,  218
 157,  156,  157,  220,  219
 158,  157,  158,  221,  220
 159,  158,  159,  222,  221
 160,  159,  160,  223,  222
 161,  160,  161,  224,  223
 162,  161,  162,  225,  224
 163,  162,  163,  226,  225
 164,  163,  164,  227,  226
 165,  164,  165,  228,  227
 166,  165,  166,  229,  228
 167,  166,  167,  230,  229
 168,  167,  168,  231,  230
 169,  168,  169,  232,  231
 170,  169,  170,  233,  232
 171,  170,  171,  234,  233
 172,  171,  172,  235,  234
 173,  172,  173,  236,  235
 174,  173,  174,  237,  236
 175,  174,  175,  238,  237
 176,  175,  176,  239,  238
 177,  176,  177,  240,  239
 178,  177,  178,  241,  240
 179,  178,  179,  242,  241
 180,  179,  180,  243,  242
 181,  180,  181,  244,  243
 182,  181,  182,  245,  244
 183,  182,  183,  246,  245
 184,  183,  184,  247,  246
 185,  184,  185,  248,  247
 186,  185,  186,  249,  248
 187,  186,  187,  250,  249
 188,  187,  188,  251,  250
 189,  188,  189,  252,  251
 190,  252,  190,  253,  315
 191,  190,  191,  254,  253
 192,  191,  192,  255,  254
 193,  192,  193,  256,  255
 194,  193,  194,  257,  256
 195,  194,  195,  258,  257
 196,  195,  196,  259,  258
 197,  196,  197,  260,  259
 198,  197,  198,  261,  260
 199,  198,  199,  262,  261
 200,  199,  200,  263,  262
 201,  200,  201,  264,  263
 202,  201,  202,  265,  264
 203,  202,  203,  266,  265
 204,  203,  204,  267,  266
 205,  204,  205,  268,  267
 206,  205,  206,  269,  268
 207,  206,  207,  270,  269
 208,  207,  208,  271,  270
 209,  208,  209,  272,  271
 210,  209,  210,  273,  272
 211,  210,  211,  274,  273
 212,  211,  212,  275,  274
 213,  212,  213,  276,  275
 214,  213,  214,  277,  276
 215,  214,  215,  278,  277
 216,  215,  216,  279,  278
 217,  216,  217,  280,  279
 218,  217,  218,  281,  280
 219,  218,  219,  282,  281
 220,  219,  220,  283,  282
 221,  220,  221,  284,  283
 222,  221,  222,  285,  284
 223,  222,  223,  286,  285
 224,  223,  224,  287,  286
 225,  224,  225,  288,  287
 226,  225,  226,  289,  288
 227,  226,  227,  290,  289
 228,  227,  228,  291,  290
 229,  228,  229,  292,  291
 230,  229,  230,  293,  292
 231,  230,  231,  294,  293
 232,  231,  232,  295,  294
 233,  232,  233,  296,  295
 234,  233,  234,  297,  296
 235,  234,  235,  298,  297
 236,  235,  236,  299,  298
 237,  236,  237,  300,  299
 238,  237,  238,  301,  300
 239,  238,  239,  302,  301
 240,  239,  240,  303,  302
 241,  240,  241,  304,  303
 242,  241,  242,  305,  304
 243,  242,  243,  306,  305
 244,  243,  244,  307,  306
 245,  244,  245,  308,  307
 246,  245,  246,  309,  308
 247,  246,  247,  310,  309
 248,  247,  248,  311,  310
 249,  248,  249,  312,  311
 250,  249,  250,  313,  312
 251,  250,  251,  314,  313
 252,  251,  252,  315,  314
 253,  315,  253,  316,  378
 254,  253,  254,  317,  316
 255,  254,  255,  318,  317
 256,  255,  256,  319,  318
 257,  256,  257,  320,  319
 258,  257,  258,  321,  320
 259,  258,  259,  322,  321
 260,  259,  260,  323,  322
 261,  260,  261,  324,  323
 262,  261,  262,  325,  324
 263,  262,  263,  326,  325
 264,  263,  264,  327,  326
 265,  264,  265,  328,  327
 266,  265,  266,  329,  328
 267,  266,  267,  330,  329
 268,  267,  268,  331,  330
 269,  268,  269,  332,  331
 270,  269,  270,  333,  332
 271,  270,  271,  334,  333
 272,  271,  272,  335,  334
 273,  272,  273,  336,  335
 274,  273,  274,  337,  336
 275,  274,  275,  338,  337
 276,  275,  276,  339,  338
 277,  276,  277,  340,  339
 278,  277,  278,  341,  340
 279,  278,  279,  342,  341
 280,  279,  280,  343,  342
 281,  280,  281,  344,  343
 282,  281,  282,  345,  344
 283,  282,  283,  346,  345
 284,  283,  284,  347,  346
 285,  284,  285,  348,  347
 286,  285,  286,  349,  348
 287,  286,  287,  350,  349
 288,  287,  288,  351,  350
 289,  288,  289,  352,  351
 290,  289,  290,  353,  352
 291,  290,  291,  354,  353
 292,  291,  292,  355,  354
 293,  292,  293,  356,  355
 294,  293,  294,  357,  356
 295,  294,  295,  358,  357
 296,  295,  296,  359,  358
 297,  296,  297,  360,  359
 298,  297,  298,  361,  360
 299,  298,  299,  362,  361
 300,  299,  300,  363,  362
 301,  300,  301,  364,  363
 302,  301,  302,  365,  364
 303,  302,  303,  366,  365
 304,  303,  304,  367,  366
 305,  304,  305,  368,  367
 306,  305,  306,  369,  368
 307,  306,  307,  370,  369
 308,  307,  308,  371,  370
 309,  308,  309,  372,  371
 310,  309,  310,  373,  372
 311,  310,  311,  374,  373
 312,  311,  312,  375,  374
 313,  312,  313,  376,  375
 314,  313,  314,  377,  376
 315,  314,  315,  378,  377
 316,  378,  316,  379,  441
 317,  316,  317,  380,  379
 318,  317,  318,  381,  380
 319,  318,  319,  382,  381
 320,  319,  320,  383,  382
 321,  320,  321,  384,  383
 322,  321,  322,  385,  384
 323,  322,  323,  386,  385
 324,  323,  324,  387,  386
 325,  324,  325,  388,  387
 326,  325,  326,  389,  388
 327,  326,  327,  390,  389
 328,  327,  328,  391,  390
 329,  328,  329,  392,  391
 330,  329,  330,  393,  392
 331,  330,  331,  394,  393
 332,  331,  332,  395,  394
 333,  332,  333,  396,  395
 334,  333,  334,  397,  396
 335,  334,  335,  398,  397
 336,  335,  336,  399,  398
 337,  336,  337,  400,  399
 338,  337,  338,  401,  400
 339,  338,  339,  402,  401
 340,  339,  340,  403,  402
 341,  340,  341,  404,  403
 342,  341,  342,  405,  404
 343,  342,  343,  406,  405
 344,  343,  344,  407,  406
 345,  344,  345,  408,  407
 346,  345,  346,  409,  408
 347,  346,  347,  410,  409
 348,  347,  348,  411,  410
 349,  348,  349,  412,  411
 350,  349,  350,  413,  412
 351,  350,  351,  414,  413
 352,  351,  352,  415,  414
 353,  352,  353,  416,  415
 354,  353,  354,  417,  416
 355,  354,  355,  418,  417
 356,  355,  356,  419,  418
 357,  356,  357,  420,  419
 358,  357,  358,  421,  420
 359,  358,  359,  422,  421
 360,  359,  360,  423,  422
 361,  360,  361,  424,  423
 362,  361,  362,  425,  424
 363,  362,  363,  426,  425
 364,  363,  364,  427,  426
 365,  364,  365,  428,  427
 366,  365,  366,  429,  428
 367,  366,  367,  430,  429
 368,  367,  368,  431,  430
 369,  368,  369,  432,  431
 370,  369,  370,  433,  432
 371,  370,  371,  434,  433
 372,  371,  372,  435,  434
 373,  372,  373,  436,  435
 374,  373,  374,  437,  436
 375,  374,  375,  438,  437
 376,  375,  376,  439,  438
 377,  376,  377,  440,  439
 378,  377,  378,  441,  440
 379,  441,  379,  442,  504
 380,  379,  380,  443,  442
 381,  380,  381,  444,  443
 382,  381,  382,  445,  444
 383,  382,  383,  446,  445
 384,  383,  384,  447,  446
 385,  384,  385,  448,  447
 386,  385,  386,  449,  448
 387,  386,  387,  450,  449
 388,  387,  388,  451,  450
 389,  388,  389,  452,  451
 390,  389,  390,  453,  452
 391,  390,  391,  454,  453
 392,  391,  392,  455,  454
 393,  392,  393,  456,  455
 394,  393,  394,  457,  456
 395,  394,  395,  458,  457
 396,  395,  396,  459,  458
 397,  396,  397,  460,  459
 398,  397,  398,  461,  460
 399,  398,  399,  462,  461
 400,  399,  400,  463,  462
 401,  400,  401,  464,  463
 402,  401,  402,  465,  464
 403,  402,  403,  466,  465
 404,  403,  404,  467,  466
 405,  404,  405,  468,  467
 406,  405,  406,  469,  468
 407,  406,  407,  470,  469
 408,  407,  408,  471,  470
 409,  408,  409,  472,  471
 410,  409,  410,  473,  472
 411,  410,  411,  474,  473
 412,  411,  412,  475,  474
 413,  412,  413,  476,  475
 414,  413,  414,  477,  476
 415,  414,  415,  478,  477
 416,  415,  416,  479,  478
 417,  416,  417,  480,  479
 418,  417,  418,  481,  480
 419,  418,  419,  482,  481
 420,  419,  420,  483,  482
 421,  420,  421,  484,  483
 422,  421,  422,  485,  484
 423,  422,  423,  486,  485
 424,  423,  424,  487,  486
 425,  424,  425,  488,  487
 426,  425,  426,  489,  488
 427,  426,  427,  490,  489
 428,  427,  428,  491,  490
 429,  428,  429,  492,  491
 430,  429,  430,  493,  492
 431,  430,  431,  494,  493
 432,  431,  432,  495,  494
 433,  432,  433,  496,  495
 434,  433,  434,  497,  496
 435,  434,  435,  498,  497
 436,  435,  436,  499,  498
 437,  436,  437,  500,  499
 438,  437,  438,  501,  500
 439,  438,  439,  502,  501
 440,  439,  440,  503,  502
 441,  440,  441,  504,  503
 442,  504,  442,  505,  567
 443,  442,  443,  506,  505
 444,  443,  444,  507,  506
 445,  444,  445,  508,  507
 446,  445,  446,  509,  508
 447,  446,  447,  510,  509
 448,  447,  448,  511,  510
 449,  448,  449,  512,  511
 450,  449,  450,  513,  512
 451,  450,  451,  514,  513
 452,  451,  452,  515,  514
 453,  452,  453,  516,  515
 454,  453,  454,  517,  516
 455,  454,  455,  518,  517
 456,  455,  456,  519,  518
 457,  456,  457,  520,  519
 458,  457,  458,  521,  520
 459,  458,  459,  522,  521
 460,  459,  460,  523,  522
 461,  460,  461,  524,  523
 462,  461,  462,  525,  524
 463,  462,  463,  526,  525
 464,  463,  464,  527,  526
 465,  464,  465,  528,  527
 466,  465,  466,  529,  528
 467,  466,  467,  530,  529
 468,  467,  468,  531,  530
 469,  468,  469,  532,  531
 470,  469,  470,  533,  532
 471,  470,  471,  534,  533
 472,  471,  472,  535,  534
 473,  472,  473,  536,  535
 474,  473,  474,  537,  536
 475,  474,  475,  538,  537
 476,  475,  476,  539,  538
 477,  476,  477,  540,  539
 478,  477,  478,  541,  540
 479,  478,  479,  542,  541
 480,  479,  480,  543,  542
 481,  480,  481,  544,  543
 482,  481,  482,  545,  544
 483,  482,  483,  546,  545
 484,  483,  484,  547,  546
 485,  484,  485,  548,  547
 486,  485,  486,  549,  548
 487,  486,  487,  550,  549
 488,  487,  488,  551,  550
 489,  488,  489,  552,  551
 490,  489,  490,  553,  552
 491,  490,  491,  554,  553
 492,  491,  492,  555,  554
 493,  492,  493,  556,  555
 494,  493,  494,  557,  556
 495,  494,  495,  558,  557
 496,  495,  496,  559,  558
 497,  496,  497,  560,  559
 498,  497,  498,  561,  560
 499,  498,  499,  562,  561
 500,  499,  500,  563,  562
 501,  500,  501,  564,  563
 502,  501,  502,  565,  564
 503,  502,  503,  566,  565
 504,  503,  504,  567,  566
 505,  567,  505,  568,  630
 506,  505,  506,  569,  568
 507,  506,  507,  570,  569
 508,  507,  508,  571,  570
 509,  508,  509,  572,  571
 510,  509,  510,  573,  572
 511,  510,  511,  574,  573
 512,  511,  512,  575,  574
 513,  512,  513,  576,  575
 514,  513,  514,  577,  576
 515,  514,  515,  578,  577
 516,  515,  516,  579,  578
 517,  516,  517,  580,  579
 518,  517,  518,  581,  580
 519,  518,  519,  582,  581
 520,  519,  520,  583,  582
 521,  520,  521,  584,  583
 522,  521,  522,  585,  584
 523,  522,  523,  586,  585
 524,  523,  524,  587,  586
 525,  524,  525,  588,  587
 526,  525,  526,  589,  588
 527,  526,  527,  590,  589
 528,  527,  528,  591,  590
 529,  528,  529,  592,  591
 530,  529,  530,  593,  592
 531,  530,  531,  594,  593
 532,  531,  532,  595,  594
 533,  532,  533,  596,  595
 534,  533,  534,  597,  596
 535,  534,  535,  598,  597
 536,  535,  536,  599,  598
 537,  536,  537,  600,  599
 538,  537,  538,  601,  600
 539,  538,  539,  602,  601
 540,  539,  540,  603,  602
 541,  540,  541,  604,  603
 542,  541,  542,  605,  604
 543,  542,  543,  606,  605
 544,  543,  544,  607,  606
 545,  544,  545,  608,  607
 546,  545,  546,  609,  608
 547,  546,  547,  610,  609
 548,  547,  548,  611,  610
 549,  548,  549,  612,  611
 550,  549,  550,  613,  612
 551,  550,  551,  614,  613
 552,  551,  552,  615,  614
 553,  552,  553,  616,  615
 554,  553,  554,  617,  616
 555,  554,  555,  618,  617
 556,  555,  556,  619,  618
 557,  556,  557,  620,  619
 558,  557,  558,  621,  620
 559,  558,  559,  622,  621
 560,  559,  560,  623,  622
 561,  560,  561,  624,  623
 562,  561,  562,  625,  624
 563,  562,  563,  626,  625
 564,  563,  564,  627,  626
 565,  564,  565,  628,  627
 566,  565,  566,  629,  628
 567,  566,  567,  630,  629
 568,  630,  568,  631,  693
 569,  568,  569,  632,  631
 570,  569,  570,  633,  632
 571,  570,  571,  634,  633
 572,  571,  572,  635,  634
 573,  572,  573,  636,  635
 574,  573,  574,  637,  636
 575,  574,  575,  638,  637
 576,  575,  576,  639,  638
 577,  576,  577,  640,  639
 578,  577,  578,  641,  640
 579,  578,  579,  642,  641
 580,  579,  580,  643,  642
 581,  580,  581,  644,  643
 582,  581,  582,  645,  644
 583,  582,  583,  646,  645
 584,  583,  584,  647,  646
 585,  584,  585,  648,  647
 586,  585,  586,  649,  648
 587,  586,  587,  650,  649
 588,  587,  588,  651,  650
 589,  588,  589,  652,  651
 590,  589,  590,  653,  652
 591,  590,  591,  654,  653
 592,  591,  592,  655,  654
 593,  592,  593,  656,  655
 594,  593,  594,  657,  656
 595,  594,  595,  658,  657
 596,  595,  596,  659,  658
 597,  596,  597,  660,  659
 598,  597,  598,  661,  660
 599,  598,  599,  662,  661
 600,  599,  600,  663,  662
 601,  600,  601,  664,  663
 602,  601,  602,  665,  664
 603,  602,  603,  666,  665
 604,  603,  604,  667,  666
 605,  604,  605,  668,  667
 606,  605,  606,  669,  668
 607,  606,  607,  670,  669
 608,  607,  608,  671,  670
 609,  608,  609,  672,  671
 610,  609,  610,  673,  672
 611,  610,  611,  674,  673
 612,  611,  612,  675,  674
 613,  612,  613,  676,  675
 614,  613,  614,  677,  676
 615,  614,  615,  678,  677
 616,  615,  616,  679,  678
 617,  616,  617,  680,  679
 618,  617,  618,  681,  680
 619,  618,  619,  682,  681
 620,  619,  620,  683,  682
 621,  620,  621,  684,  683
 622,  621,  622,  685,  684
 623,  622,  623,  686,  685
 624,  623,  624,  687,  686
 625,  624,  625,  688,  687
 626,  625,  626,  689,  688
 627,  626,  627,  690,  689
 628,  627,  628,  691,  690
 629,  628,  629,  692,  691
 630,  629,  630,  693,  692
 631,  693,  631,  694,  756
 632,  631,  632,  695,  694
 633,  632,  633,  696,  695
 634,  633,  634,  697,  696
 635,  634,  635,  698,  697
 636,  635,  636,  699,  698
 637,  636,  637,  700,  699
 638,  637,  638,  701,  700
 639,  638,  639,  702,  701
 640,  639,  640,  703,  702
 641,  640,  641,  704,  703
 642,  641,  642,  705,  704
 643,  642,  643,  706,  705
 644,  643,  644,  707,  706
 645,  644,  645,  708,  707
 646,  645,  646,  709,  708
 647,  646,  647,  710,  709
 648,  647,  648,  711,  710
 649,  648,  649,  712,  711
 650,  649,  650,  713,  712
 651,  650,  651,  714,  713
 652,  651,  652,  715,  714
 653,  652,  653,  716,  715
 654,  653,  654,  717,  716
 655,  654,  655,  718,  717
 656,  655,  656,  719,  718
 657,  656,  657,  720,  719
 658,  657,  658,  721,  720
 659,  658,  659,  722,  721
 660,  659,  660,  723,  722
 661,  660,  661,  724,  723
 662,  661,  662,  725,  724
 663,  662,  663,  726,  725
 664,  663,  664,  727,  726
 665,  664,  665,  728,  727
 666,  665,  666,  729,  728
 667,  666,  667,  730,  729
 668,  667,  668,  731,  730
 669,  668,  669,  732,  731
 670,  669,  670,  733,  732
 671,  670,  671,  734,  733
 672,  671,  672,  735,  734
 673,  672,  673,  736,  735
 674,  673,  674,  737,  736
 675,  674,  675,  738,  737
 676,  675,  676,  739,  738
 677,  676,  677,  740,  739
 678,  677,  678,  741,  740
 679,  678,  679,  742,  741
 680,  679,  680,  743,  742
 681,  680,  681,  744,  743
 682,  681,  682,  745,  744
 683,  682,  683,  746,  745
 684,  683,  684,  747,  746
 685,  684,  685,  748,  747
 686,  685,  686,  749,  748
 687,  686,  687,  750,  749
 688,  687,  688,  751,  750
 689,  688,  689,  752,  751
 690,  689,  690,  753,  752
 691,  690,  691,  754,  753
 692,  691,  692,  755,  754
 693,  692,  693,  756,  755
 694,  756,  694,  757,  819
 695,  694,  695,  758,  757
 696,  695,  696,  759,  758
 697,  696,  697,  760,  759
 698,  697,  698,  761,  760
 699,  698,  699,  762,  761
 700,  699,  700,  763,  762
 701,  700,  701,  764,  763
 702,  701,  702,  765,  764
 703,  702,  703,  766,  765
 704,  703,  704,  767,  766
 705,  704,  705,  768,  767
 706,  705,  706,  769,  768
 707,  706,  707,  770,  769
 708,  707,  708,  771,  770
 709,  708,  709,  772,  771
 710,  709,  710,  773,  772
 711,  710,  711,  774,  773
 712,  711,  712,  775,  774
 713,  712,  713,  776,  775
 714,  713,  714,  777,  776
 715,  714,  715,  778,  777
 716,  715,  716,  779,  778
 717,  716,  717,  780,  779
 718,  717,  718,  781,  780
 719,  718,  719,  782,  781
 720,  719,  720,  783,  782
 721,  720,  721,  784,  783
 722,  721,  722,  785,  784
 723,  722,  723,  786,  785
 724,  723,  724,  787,  786
 725,  724,  725,  788,  787
 726,  725,  726,  789,  788
 727,  726,  727,  790,  789
 728,  727,  728,  791,  790
 729,  728,  729,  792,  791
 730,  729,  730,  793,  792
 731,  730,  731,  794,  793
 732,  731,  732,  795,  794
 733,  732,  733,  796,  795
 734,  733,  734,  797,  796
 735,  734,  735,  798,  797
 736,  735,  736,  799,  798
 737,  736,  737,  800,  799
 738,  737,  738,  801,  800
 739,  738,  739,  802,  801
 740,  739,  740,  803,  802
 741,  740,  741,  804,  803
 742,  741,  742,  805,  804
 743,  742,  743,  806,  805
 744,  743,  744,  807,  806
 745,  744,  745,  808,  807
 746,  745,  746,  809,  808
 747,  746,  747,  810,  809
 748,  747,  748,  811,  810
 749,  748,  749,  812,  811
 750,  749,  750,  813,  812
 751,  750,  751,  814,  813
 752,  751,  752,  815,  814
 753,  752,  753,  816,  815
 754,  753,  754,  817,  816
 755,  754,  755,  818,  817
 756,  755,  756,  819,  818
 757,  819,  757,  820,  882
 758,  757,  758,  821,  820
 759,  758,  759,  822,  821
 760,  759,  760,  823,  822
 761,  760,  761,  824,  823
 762,  761,  762,  825,  824
 763,  762,  763,  826,  825
 764,  763,  764,  827,  826
 765,  764,  765,  828,  827
 766,  765,  766,  829,  828
 767,  766,  767,  830,  829
 768,  767,  768,  831,  830
 769,  768,  769,  832,  831
 770,  769,  770,  833,  832
 771,  770,  771,  834,  833
 772,  771,  772,  835,  834
 773,  772,  773,  836,  835
 774,  773,  774,  837,  836
 775,  774,  775,  838,  837
 776,  775,  776,  839,  838
 777,  776,  777,  840,  839
 778,  777,  778,  841,  840
 779,  778,  779,  842,  841
 780,  779,  780,  843,  842
 781,  780,  781,  844,  843
 782,  781,  782,  845,  844
 783,  782,  783,  846,  845
 784,  783,  784,  847,  846
 785,  784,  785,  848,  847
 786,  785,  786,  849,  848
 787,  786,  787,  850,  849
 788,  787,  788,  851,  850
 789,  788,  789,  852,  851
 790,  789,  790,  853,  852
 791,  790,  791,  854,  853
 792,  791,  792,  855,  854
 793,  792,  793,  856,  855
 794,  793,  794,  857,  856
 795,  794,  795,  858,  857
 796,  795,  796,  859,  858
 797,  796,  797,  860,  859
 798,  797,  798,  861,  860
 799,  798,  799,  862,  861
 800,  799,  800,  863,  862
 801,  800,  801,  864,  863
 802,  801,  802,  865,  864
 803,  802,  803,  866,  865
 804,  803,  804,  867,  866
 805,  804,  805,  868,  867
 806,  805,  806,  869,  868
 807,  806,  807,  870,  869
 808,  807,  808,  871,  870
 809,  808,  809,  872,  871
 810,  809,  810,  873,  872
 811,  810,  811,  874,  873
 812,  811,  812,  875,  874
 813,  812,  813,  876,  875
 814,  813,  814,  877,  876
 815,  814,  815,  878,  877
 816,  815,  816,  879,  878
 817,  816,  817,  880,  879
 818,  817,  818,  881,  880
 819,  818,  819,  882,  881
 820,  882,  820,  883,  945
 821,  820,  821,  884,  883
 822,  821,  822,  885,  884
 823,  822,  823,  886,  885
 824,  823,  824,  887,  886
 825,  824,  825,  888,  887
 826,  825,  826,  889,  888
 827,  826,  827,  890,  889
 828,  827,  828,  891,  890
 829,  828,  829,  892,  891
 830,  829,  830,  893,  892
 831,  830,  831,  894,  893
 832,  831,  832,  895,  894
 833,  832,  833,  896,  895
 834,  833,  834,  897,  896
 835,  834,  835,  898,  897
 836,  835,  836,  899,  898
 837,  836,  837,  900,  899
 838,  837,  838,  901,  900
 839,  838,  839,  902,  901
 840,  839,  840,  903,  902
 841,  840,  841,  904,  903
 842,  841,  842,  905,  904
 843,  842,  843,  906,  905
 844,  843,  844,  907,  906
 845,  844,  845,  908,  907
 846,  845,  846,  909,  908
 847,  846,  847,  910,  909
 848,  847,  848,  911,  910
 849,  848,  849,  912,  911
 850,  849,  850,  913,  912
 851,  850,  851,  914,  913
 852,  851,  852,  915,  914
 853,  852,  853,  916,  915
 854,  853,  854,  917,  916
 855,  854,  855,  918,  917
 856,  855,  856,  919,  918
 857,  856,  857,  920,  919
 858,  857,  858,  921,  920
 859,  858,  859,  922,  921
 860,  859,  860,  923,  922
 861,  860,  861,  924,  923
 862,  861,  862,  925,  924
 863,  862,  863,  926,  925
 864,  863,  864,  927,  926
 865,  864,  865,  928,  927
 866,  865,  866,  929,  928
 867,  866,  867,  930,  929
 868,  867,  868,  931,  930
 869,  868,  869,  932,  931
 870,  869,  870,  933,  932
 871,  870,  871,  934,  933
 872,  871,  872,  935,  934
 873,  872,  873,  936,  935
 874,  873,  874,  937,  936
 875,  874,  875,  938,  937
 876,  875,  876,  939,  938
 877,  876,  877,  940,  939
 878,  877,  878,  941,  940
 879,  878,  879,  942,  941
 880,  879,  880,  943,  942
 881,  880,  881,  944,  943
 882,  881,  882,  945,  944
 883,  945,  883,  946, 1008
 884,  883,  884,  947,  946
 885,  884,  885,  948,  947
 886,  885,  886,  949,  948
 887,  886,  887,  950,  949
 888,  887,  888,  951,  950
 889,  888,  889,  952,  951
 890,  889,  890,  953,  952
 891,  890,  891,  954,  953
 892,  891,  892,  955,  954
 893,  892,  893,  956,  955
 894,  893,  894,  957,  956
 895,  894,  895,  958,  957
 896,  895,  896,  959,  958
 897,  896,  897,  960,  959
 898,  897,  898,  961,  960
 899,  898,  899,  962,  961
 900,  899,  900,  963,  962
 901,  900,  901,  964,  963
 902,  901,  902,  965,  964
 903,  902,  903,  966,  965
 904,  903,  904,  967,  966
 905,  904,  905,  968,  967
 906,  905,  906,  969,  968
 907,  906,  907,  970,  969
 908,  907,  908,  971,  970
 909,  908,  909,  972,  971
 910,  909,  910,  973,  972
 911,  910,  911,  974,  973
 912,  911,  912,  975,  974
 913,  912,  913,  976,  975
 914,  913,  914,  977,  976
 915,  914,  915,  978,  977
 916,  915,  916,  979,  978
 917,  916,  917,  980,  979
 918,  917,  918,  981,  980
 919,  918,  919,  982,  981
 920,  919,  920,  983,  982
 921,  920,  921,  984,  983
 922,  921,  922,  985,  984
 923,  922,  923,  986,  985
 924,  923,  924,  987,  986
 925,  924,  925,  988,  987
 926,  925,  926,  989,  988
 927,  926,  927,  990,  989
 928,  927,  928,  991,  990
 929,  928,  929,  992,  991
 930,  929,  930,  993,  992
 931,  930,  931,  994,  993
 932,  931,  932,  995,  994
 933,  932,  933,  996,  995
 934,  933,  934,  997,  996
 935,  934,  935,  998,  997
 936,  935,  936,  999,  998
 937,  936,  937, 1000,  999
 938,  937,  938, 1001, 1000
 939,  938,  939, 1002, 1001
 940,  939,  940, 1003, 1002
 941,  940,  941, 1004, 1003
 942,  941,  942, 1005, 1004
 943,  942,  943, 1006, 1005
 944,  943,  944, 1007, 1006
 945,  944,  945, 1008, 1007
 946, 1008,  946, 1009, 1071
 947,  946,  947, 1010, 1009
 948,  947,  948, 1011, 1010
 949,  948,  949, 1012, 1011
 950,  949,  950, 1013, 1012
 951,  950,  951, 1014, 1013
 952,  951,  952, 1015, 1014
 953,  952,  953, 1016, 1015
 954,  953,  954, 1017, 1016
 955,  954,  955, 1018, 1017
 956,  955,  956, 1019, 1018
 957,  956,  957, 1020, 1019
 958,  957,  958, 1021, 1020
 959,  958,  959, 1022, 1021
 960,  959,  960, 1023, 1022
 961,  960,  961, 1024, 1023
 962,  961,  962, 1025, 1024
 963,  962,  963, 1026, 1025
 964,  963,  964, 1027, 1026
 965,  964,  965, 1028, 1027
 966,  965,  966, 1029, 1028
 967,  966,  967, 1030, 1029
 968,  967,  968, 1031, 1030
 969,  968,  969, 1032, 1031
 970,  969,  970, 1033, 1032
 971,  970,  971, 1034, 1033
 972,  971,  972, 1035, 1034
 973,  972,  973, 1036, 1035
 974,  973,  974, 1037, 1036
 975,  974,  975, 1038, 1037
 976,  975,  976, 1039, 1038
 977,  976,  977, 1040, 1039
 978,  977,  978, 1041, 1040
 979,  978,  979, 1042, 1041
 980,  979,  980, 1043, 1042
 981,  980,  981, 1044, 1043
 982,  981,  982, 1045, 1044
 983,  982,  983, 1046, 1045
 984,  983,  984, 1047, 1046
 985,  984,  985, 1048, 1047
 986,  985,  986, 1049, 1048
 987,  986,  987, 1050, 1049
 988,  987,  988, 1051, 1050
 989,  988,  989, 1052, 1051
 990,  989,  990, 1053, 1052
 991,  990,  991, 1054, 1053
 992,  991,  992, 1055, 1054
 993,  992,  993, 1056, 1055
 994,  993,  994, 1057, 1056
 995,  994,  995, 1058, 1057
 996,  995,  996, 1059, 1058
 997,  996,  997, 1060, 1059
 998,  997,  998, 1061, 1060
 999,  998,  999, 1062, 1061
1000,  999, 1000, 1063, 1062
1001, 1000, 1001, 1064, 1063
1002, 1001, 1002, 1065, 1064
1003, 1002, 1003, 1066, 1065
1004, 1003, 1004, 1067, 1066
1005, 1004, 1005, 1068, 1067
1006, 1005, 1006, 1069, 1068
1007, 1006, 1007, 1070, 1069
1008, 1007, 1008, 1071, 1070
1009, 1071, 1009, 1072, 1134
1010, 1009, 1010, 1073, 1072
1011, 1010, 1011, 1074, 1073
1012, 1011, 1012, 1075, 1074
1013, 1012, 1013, 1076, 1075
1014, 1013, 1014, 1077, 1076
1015, 1014, 1015, 1078, 1077
1016, 1015, 1016, 1079, 1078
1017, 1016, 1017, 1080, 1079
1018, 1017, 1018, 1081, 1080
1019, 1018, 1019, 1082, 1081
1020, 1019, 1020, 1083, 1082
1021, 1020, 1021, 1084, 1083
1022, 1021, 1022, 1085, 1084
1023, 1022, 1023, 1086, 1085
1024, 1023, 1024, 1087, 1086
1025, 1024, 1025, 1088, 1087
1026, 1025, 1026, 1089, 1088
1027, 1026, 1027, 1090, 1089
1028, 1027, 1028, 1091, 1090
1029, 1028, 1029, 1092, 1091
1030, 1029, 1030, 1093, 1092
1031, 1030, 1031, 1094, 1093
1032, 1031, 1032, 1095, 1094
1033, 1032, 1033, 1096, 1095
1034, 1033, 1034, 1097, 1096
1035, 1034, 1035, 1098, 1097
1036, 1035, 1036, 1099, 1098
1037, 1036, 1037, 1100, 1099
1038, 1037, 1038, 1101, 1100
1039, 1038, 1039, 1102, 1101
1040, 1039, 1040, 1103, 1102
1041, 1040, 1041, 1104, 1103
1042, 1041, 1042, 1105, 1104
1043, 1042, 1043, 1106, 1105
1044, 1043, 1044, 1107, 1106
1045, 1044, 1045, 1108, 1107
1046, 1045, 1046, 1109, 1108
1047, 1046, 1047, 1110, 1109
1048, 1047, 1048, 1111, 1110
1049, 1048, 1049, 1112, 1111
1050, 1049, 1050, 1113, 1112
1051, 1050, 1051, 1114, 1113
1052, 1051, 1052, 1115, 1114
1053, 1052, 1053, 1116, 1115
1054, 1053, 1054, 1117, 1116
1055, 1054, 1055, 1118, 1117
1056, 1055, 1056, 1119, 1118
1057, 1056, 1057, 1120, 1119
1058, 1057, 1058, 1121, 1120
1059, 1058, 1059, 1122, 1121
1060, 1059, 1060, 1123, 1122
1061, 1060, 1061, 1124, 1123
1062, 1061, 1062, 1125, 1124
1063, 1062, 1063, 1126, 1125
1064, 1063, 1064, 1127, 1126
1065, 1064, 1065, 1128, 1127
1066, 1065, 1066, 1129, 1128
1067, 1066, 1067, 1130, 1129
1068, 1067, 1068, 1131, 1130
1069, 1068, 1069, 1132, 1131
1070, 1069, 1070, 1133, 1132
1071, 1070, 1071, 1134, 1133
1072, 1134, 1072, 1135, 1197
1073, 1072, 1073, 1136, 1135
1074, 1073, 1074, 1137, 1136
1075, 1074, 1075, 1138, 1137
1076, 1075, 1076, 1139, 1138
1077, 1076, 1077, 1140, 1139
1078, 1077, 1078, 1141, 1140
1079, 1078, 1079, 1142, 1141
1080, 1079, 1080, 1143, 1142
1081, 1080, 1081, 1144, 1143
1082, 1081, 1082, 1145, 1144
1083, 1082, 1083, 1146, 1145
1084, 1083, 1084, 1147, 1146
1085, 1084, 1085, 1148, 1147
1086, 1085, 1086, 1149, 1148
1087, 1086, 1087, 1150, 1149
1088, 1087, 1088, 1151, 1150
1089, 1088, 1089, 1152, 1151
1090, 1089, 1090, 1153, 1152
1091, 1090, 1091, 1154, 1153
1092, 1091, 1092, 1155, 1154
1093, 1092, 1093, 1156, 1155
1094, 1093, 1094, 1157, 1156
1095, 1094, 1095, 1158, 1157
1096, 1095, 1096, 1159, 1158
1097, 1096, 1097, 1160, 1159
1098, 1097, 1098, 1161, 1160
1099, 1098, 1099, 1162, 1161
1100, 1099, 1100, 1163, 1162
1101, 1100, 1101, 1164, 1163
1102, 1101, 1102, 1165, 1164
1103, 1102, 1103, 1166, 1165
1104, 1103, 1104, 1167, 1166
1105, 1104, 1105, 1168, 1167
1106, 1105, 1106, 1169, 1168
1107, 1106, 1107, 1170, 1169
1108, 1107, 1108, 1171, 1170
1109, 1108, 1109, 1172, 1171
1110, 1109, 1110, 1173, 1172
1111, 1110, 1111, 1174, 1173
1112, 1111, 1112, 1175, 1174
1113, 1112, 1113, 1176, 1175
1114, 1113, 1114, 1177, 1176
1115, 1114, 1115, 1178, 1177
1116, 1115, 1116, 1179, 1178
1117, 1116, 1117, 1180, 1179
1118, 1117, 1118, 1181, 1180
1119, 1118, 1119, 1182, 1181
1120, 1119, 1120, 1183, 1182
1121, 1120, 1121, 1184, 1183
1122, 1121, 1122, 1185, 1184
1123, 1122, 1123, 1186, 1185
1124, 1123, 1124, 1187, 1186
1125, 1124, 1125, 1188, 1187
1126, 1125, 1126, 1189, 1188
1127, 1126, 1127, 1190, 1189
1128, 1127, 1128, 1191, 1190
1129, 1128, 1129, 1192, 1191
1130, 1129, 1130, 1193, 1192
1131, 1130, 1131, 1194, 1193
1132, 1131, 1132, 1195, 1194
1133, 1132, 1133, 1196, 1195
1134, 1133, 1134, 1197, 1196
1135, 1197, 1135, 1198, 1260
1136, 1135, 1136, 1199, 1198
1137, 1136, 1137, 1200, 1199
1138, 1137, 1138, 1201, 1200
1139, 1138, 1139, 1202, 1201
1140, 1139, 1140, 1203, 1202
1141, 1140, 1141, 1204, 1203
1142, 1141, 1142, 1205, 1204
1143, 1142, 1143, 1206, 1205
1144, 1143, 1144, 1207, 1206
1145, 1144, 1145, 1208, 1207
1146, 1145, 1146, 1209, 1208
1147, 1146, 1147, 1210, 1209
1148, 1147, 1148, 1211, 1210
1149, 1148, 1149, 1212, 1211
1150, 1149, 1150, 1213, 1212
1151, 1150, 1151, 1214, 1213
1152, 1151, 1152, 1215, 1214
1153, 1152, 1153, 1216, 1215
1154, 1153, 1154, 1217, 1216
1155, 1154, 1155, 1218, 1217
1156, 1155, 1156, 1219, 1218
1157, 1156, 1157, 1220, 1219
1158, 1157, 1158, 1221, 1220
1159, 1158, 1159, 1222, 1221
1160, 1159, 1160, 1223, 1222
1161, 1160, 1161, 1224, 1223
1162, 1161, 1162, 1225, 1224
1163, 1162, 1163, 1226, 1225
1164, 1163, 1164, 1227, 1226
1165, 1164, 1165, 1228, 1227
1166, 1165, 1166, 1229, 1228
1167, 1166, 1167, 1230, 1229
1168, 1167, 1168, 1231, 1230
1169, 1168, 1169, 1232, 1231
1170, 1169, 1170, 1233, 1232
1171, 1170, 1171, 1234, 1233
1172, 1171, 1172, 1235, 1234
1173, 1172, 1173, 1236, 1235
1174, 1173, 1174, 1237, 1236
1175, 1174, 1175, 1238, 1237
1176, 1175, 1176, 1239, 1238
1177, 1176, 1177, 1240, 1239
1178, 1177, 1178, 1241, 1240
1179, 1178, 1179, 1242, 1241
1180, 1179, 1180, 1243, 1242
1181, 1180, 1181, 1244, 1243
1182, 1181, 1182, 1245, 1244
1183, 1182, 1183, 1246, 1245
1184, 1183, 1184, 1247, 1246
1185, 1184, 1185, 1248, 1247
1186, 1185, 1186, 1249, 1248
1187, 1186, 1187, 1250, 1249
1188, 1187, 1188, 1251, 1250
1189, 1188, 1189, 1252, 1251
1190, 1189, 1190, 1253, 1252
1191, 1190, 1191, 1254, 1253
1192, 1191, 1192, 1255, 1254
1193, 1192, 1193, 1256, 1255
1194, 1193, 1194, 1257, 1256
1195, 1194, 1195, 1258, 1257
1196, 1195, 1196, 1259, 1258
1197, 1196, 1197, 1260, 1259
1198, 1260, 1198, 1261, 1323
1199, 1198, 1199, 1262, 1261
1200, 1199, 1200, 1263, 1262
1201, 1200, 1201, 1264, 1263
1202, 1201, 1202, 1265, 1264
1203, 1202, 1203, 1266, 1265
1204, 1203, 1204, 1267, 1266
1205, 1204, 1205, 1268, 1267
1206, 1205, 1206, 1269, 1268
1207, 1206, 1207, 1270, 1269
1208, 1207, 1208, 1271, 1270
1209, 1208, 1209, 1272, 1271
1210, 1209, 1210, 1273, 1272
1211, 1210, 1211, 1274, 1273
1212, 1211, 1212, 1275, 1274
1213, 1212, 1213, 1276, 1275
1214, 1213, 1214, 1277, 1276
1215, 1214, 1215, 1278, 1277
1216, 1215, 1216, 1279, 1278
1217, 1216, 1217, 1280, 1279
1218, 1217, 1218, 1281, 1280
1219, 1218, 1219, 1282, 1281
1220, 1219, 1220, 1283, 1282
1221, 1220, 1221, 1284, 1283
1222, 1221, 1222, 1285, 1284
1223, 1222, 1223, 1286, 1285
1224, 1223, 1224, 1287, 1286
1225, 1224, 1225, 1288, 1287
1226, 1225, 1226, 1289, 1288
1227, 1226, 1227, 1290, 1289
1228, 1227, 1228, 1291, 1290
1229, 1228, 1229, 1292, 1291
1230, 1229, 1230, 1293, 1292
1231, 1230, 1231, 1294, 1293
1232, 1231, 1232, 1295, 1294
1233, 1232, 1233, 1296, 1295
1234, 1233, 1234, 1297, 1296
1235, 1234, 1235, 1298, 1297
1236, 1235, 1236, 1299, 1298
1237, 1236, 1237, 1300, 1299
1238, 1237, 1238, 1301, 1300
1239, 1238, 1239, 1302, 1301
1240, 1239, 1240, 1303, 1302
1241, 1240, 1241, 1304, 1303
1242, 1241, 1242, 1305, 1304
1243, 1242, 1243, 1306, 1305
1244, 1243, 1244, 1307, 1306
1245, 1244, 1245, 1308, 1307
1246, 1245, 1246, 1309, 1308
1247, 1246, 1247, 1310, 1309
1248, 1247, 1248, 1311, 1310
1249, 1248, 1249, 1312, 1311
1250, 1249, 1250, 1313, 1312
1251, 1250, 1251, 1314, 1313
1252, 1251, 1252, 1315, 1314
1253, 1252, 1253, 1316, 1315
1254, 1253, 1254, 1317, 1316
1255, 1254, 1255, 1318, 1317
1256, 1255, 1256, 1319, 1318
1257, 1256, 1257, 1320, 1319
1258, 1257, 1258, 1321, 1320
1259, 1258, 1259, 1322, 1321
1260, 1259, 1260, 1323, 1322
1261, 1323, 1261, 1324, 1386
1262, 1261, 1262, 1325, 1324
1263, 1262, 1263, 1326, 1325
1264, 1263, 1264, 1327, 1326
1265, 1264, 1265, 1328, 1327
1266, 1265, 1266, 1329, 1328
1267, 1266, 1267, 1330, 1329
1268, 1267, 1268, 1331, 1330
1269, 1268, 1269, 1332, 1331
1270, 1269, 1270, 1333, 1332
1271, 1270, 1271, 1334, 1333
1272, 1271, 1272, 1335, 1334
1273, 1272, 1273, 1336, 1335
1274, 1273, 1274, 1337, 1336
1275, 1274, 1275, 1338, 1337
1276, 1275, 1276, 1339, 1338
1277, 1276, 1277, 1340, 1339
1278, 1277, 1278, 1341, 1340
1279, 1278, 1279, 1342, 1341
1280, 1279, 1280, 1343, 1342
1281, 1280, 1281, 1344, 1343
1282, 1281, 1282, 1345, 1344
1283, 1282, 1283, 1346, 1345
1284, 1283, 1284, 1347, 1346
1285, 1284, 1285, 1348, 1347
1286, 1285, 1286, 1349, 1348
1287, 1286, 1287, 1350, 1349
1288, 1287, 1288, 1351, 1350
1289, 1288, 1289, 1352, 1351
1290, 1289, 1290, 1353, 1352
1291, 1290, 1291, 1354, 1353
1292, 1291, 1292, 1355, 1354
1293, 1292, 1293, 1356, 1355
1294, 1293, 1294, 1357, 1356
1295, 1294, 1295, 1358, 1357
1296, 1295, 1296, 1359, 1358
1297, 1296, 1297, 1360, 1359
1298, 1297, 1298, 1361, 1360
1299, 1298, 1299, 1362, 1361
1300, 1299, 1300, 1363, 1362
1301, 1300, 1301, 1364, 1363
1302, 1301, 1302, 1365, 1364
1303, 1302, 1303, 1366, 1365
1304, 1303, 1304, 1367, 1366
1305, 1304, 1305, 1368, 1367
1306, 1305, 1306, 1369, 1368
1307, 1306, 1307, 1370, 1369
1308, 1307, 1308, 1371, 1370
1309, 1308, 1309, 1372, 1371
1310, 1309, 1310, 1373, 1372
1311, 1310, 1311, 1374, 1373
1312, 1311, 1312, 1375, 1374
1313, 1312, 1313, 1376, 1375
1314, 1313, 1314, 1377, 1376
1315, 1314, 1315, 1378, 1377
1316, 1315, 1316, 1379, 1378
1317, 1316, 1317, 1380, 1379
1318, 1317, 1318, 1381, 1380
1319, 1318, 1319, 1382, 1381
1320, 1319, 1320, 1383, 1382
1321, 1320, 1321, 1384, 1383
1322, 1321, 1322, 1385, 1384
1323, 1322, 1323, 1386, 1385
1324, 1386, 1324, 1387, 1449
1325, 1324, 1325, 1388, 1387
1326, 1325, 1326, 1389, 1388
1327, 1326, 1327, 1390, 1389
1328, 1327, 1328, 1391, 1390
1329, 1328, 1329, 1392, 1391
1330, 1329, 1330, 1393, 1392
1331, 1330, 1331, 1394, 1393
1332, 1331, 1332, 1395, 1394
1333, 1332, 1333, 1396, 1395
1334, 1333, 1334, 1397, 1396
1335, 1334, 1335, 1398, 1397
1336, 1335, 1336, 1399, 1398
1337, 1336, 1337, 1400, 1399
1338, 1337, 1338, 1401, 1400
1339, 1338, 1339, 1402, 1401
1340, 1339, 1340, 1403, 1402
1341, 1340, 1341, 1404, 1403
1342, 1341, 1342, 1405, 1404
1343, 1342, 1343, 1406, 1405
1344, 1343, 1344, 1407, 1406
1345, 1344, 1345, 1408, 1407
1346, 1345, 1346, 1409, 1408
1347, 1346, 1347, 1410, 1409
1348, 1347, 1348, 1411, 1410
1349, 1348, 1349, 1412, 1411
1350, 1349, 1350, 1413, 1412
1351, 1350, 1351, 1414, 1413
1352, 1351, 1352, 1415, 1414
1353, 1352, 1353, 1416, 1415
1354, 1353, 1354, 1417, 1416
1355, 1354, 1355, 1418, 1417
1356, 1355, 1356, 1419, 1418
1357, 1356, 1357, 1420, 1419
1358, 1357, 1358, 1421, 1420
1359, 1358, 1359, 1422, 1421
1360, 1359, 1360, 1423, 1422
1361, 1360, 1361, 1424, 1423
1362, 1361, 1362, 1425, 1424
1363, 1362, 1363, 1426, 1425
1364, 1363, 1364, 1427, 1426
1365, 1364, 1365, 1428, 1427
1366, 1365, 1366, 1429, 1428
1367, 1366, 1367, 1430, 1429
1368, 1367, 1368, 1431, 1430
1369, 1368, 1369, 1432, 1431
1370, 1369, 1370, 1433, 1432
1371, 1370, 1371, 1434, 1433
1372, 1371, 1372, 1435, 1434
1373, 1372, 1373, 1436, 1435
1374, 1373, 1374, 1437, 1436
1375, 1374, 1375, 1438, 1437
1376, 1375, 1376, 1439, 1438
1377, 1376, 1377, 1440, 1439
1378, 1377, 1378, 1441, 1440
1379, 1378, 1379, 1442, 1441
1380, 1379, 1380, 1443, 1442
1381, 1380, 1381, 1444, 1443
1382, 1381, 1382, 1445, 1444
1383, 1382, 1383, 1446, 1445
1384, 1383, 1384, 1447, 1446
1385, 1384, 1385, 1448, 1447
1386, 1385, 1386, 1449, 1448
1387, 1449, 1387, 1450, 1512
1388, 1387, 1388, 1451, 1450
1389, 1388, 1389, 1452, 1451
1390, 1389, 1390, 1453, 1452
1391, 1390, 1391, 1454, 1453
1392, 1391, 1392, 1455, 1454
1393, 1392, 1393, 1456, 1455
1394, 1393, 1394, 1457, 1456
1395, 1394, 1395, 1458, 1457
1396, 1395, 1396, 1459, 1458
1397, 1396, 1397, 1460, 1459
1398, 1397, 1398, 1461, 1460
1399, 1398, 1399, 1462, 1461
1400, 1399, 1400, 1463, 1462
1401, 1400, 1401, 1464, 1463
1402, 1401, 1402, 1465, 1464
1403, 1402, 1403, 1466, 1465
1404, 1403, 1404, 1467, 1466
1405, 1404, 1405, 1468, 1467
1406, 1405, 1406, 1469, 1468
1407, 1406, 1407, 1470, 1469
1408, 1407, 1408, 1471, 1470
1409, 1408, 1409, 1472, 1471
1410, 1409, 1410, 1473, 1472
1411, 1410, 1411, 1474, 1473
1412, 1411, 1412, 1475, 1474
1413, 1412, 1413, 1476, 1475
1414, 1413, 1414, 1477, 1476
1415, 1414, 1415, 1478, 1477
1416, 1415, 1416, 1479, 1478
1417, 1416, 1417, 1480, 1479
1418, 1417, 1418, 1481, 1480
1419, 1418, 1419, 1482, 1481
1420, 1419, 1420, 1483, 1482
1421, 1420, 1421, 1484, 1483
1422, 1421, 1422, 1485, 1484
1423, 1422, 1423, 1486, 1485
1424, 1423, 1424, 1487, 1486
1425, 1424, 1425, 1488, 1487
1426, 1425, 1426, 1489, 1488
1427, 1426, 1427, 1490, 1489
1428, 1427, 1428, 1491, 1490
1429, 1428, 1429, 1492, 1491
1430, 1429, 1430, 1493, 1492
1431, 1430, 1431, 1494, 1493
1432, 1431, 1432, 1495, 1494
1433, 1432, 1433, 1496, 1495
1434, 1433, 1434, 1497, 1496
1435, 1434, 1435, 1498, 1497
1436, 1435, 1436, 1499, 1498
1437, 1436, 1437, 1500, 1499
1438, 1437, 1438, 1501, 1500
1439, 1438, 1439, 1502, 1501
1440, 1439, 1440, 1503, 1502
1441, 1440, 1441, 1504, 1503
1442, 1441, 1442, 1505, 1504
1443, 1442, 1443, 1506, 1505
1444, 1443, 1444, 1507, 1506
1445, 1444, 1445, 1508, 1507
1446, 1445, 1446, 1509, 1508
1447, 1446, 1447, 1510, 1509
1448, 1447, 1448, 1511, 1510
1449, 1448, 1449, 1512, 1511
1450, 1512, 1450, 1513, 1575
1451, 1450, 1451, 1514, 1513
1452, 1451, 1452, 1515, 1514
1453, 1452, 1453, 1516, 1515
1454, 1453, 1454, 1517, 1516
1455, 1454, 1455, 1518, 1517
1456, 1455, 1456, 1519, 1518
1457, 1456, 1457, 1520, 1519
1458, 1457, 1458, 1521, 1520
1459, 1458, 1459, 1522, 1521
1460, 1459, 1460, 1523, 1522
1461, 1460, 1461, 1524, 1523
1462, 1461, 1462, 1525, 1524
1463, 1462, 1463, 1526, 1525
1464, 1463, 1464, 1527, 1526
1465, 1464, 1465, 1528, 1527
1466, 1465, 1466, 1529, 1528
1467, 1466, 1467, 1530, 1529
1468, 1467, 1468, 1531, 1530
1469, 1468, 1469, 1532, 1531
1470, 1469, 1470, 1533, 1532
1471, 1470, 1471, 1534, 1533
1472, 1471, 1472, 1535, 1534
1473, 1472, 1473, 1536, 1535
1474, 1473, 1474, 1537, 1536
1475, 1474, 1475, 1538, 1537
1476, 1475, 1476, 1539, 1538
1477, 1476, 1477, 1540, 1539
1478, 1477, 1478, 1541, 1540
1479, 1478, 1479, 1542, 1541
1480, 1479, 1480, 1543, 1542
1481, 1480, 1481, 1544, 1543
1482, 1481, 1482, 1545, 1544
1483, 1482, 1483, 1546, 1545
1484, 1483, 1484, 1547, 1546
1485, 1484, 1485, 1548, 1547
1486, 1485, 1486, 1549, 1548
1487, 1486, 1487, 1550, 1549
1488, 1487, 1488, 1551, 1550
1489, 1488, 1489, 1552, 1551
1490, 1489, 1490, 1553, 1552
1491, 1490, 1491, 1554, 1553
1492, 1491, 1492, 1555, 1554
1493, 1492, 1493, 1556, 1555
1494, 1493, 1494, 1557, 1556
1495, 1494, 1495, 1558, 1557
1496, 1495, 1496, 1559, 1558
1497, 1496, 1497, 1560, 1559
1498, 1497, 1498, 1561, 1560
1499, 1498, 1499, 1562, 1561
1500, 1499, 1500, 1563, 1562
1501, 1500, 1501, 1564, 1563
1502, 1501, 1502, 1565, 1564
1503, 1502, 1503, 1566, 1565
1504, 1503, 1504, 1567, 1566
1505, 1504, 1505, 1568, 1567
1506, 1505, 1506, 1569, 1568
1507, 1506, 1507, 1570, 1569
1508, 1507, 1508, 1571, 1570
1509, 1508, 1509, 1572, 1571
1510, 1509, 1510, 1573, 1572
1511, 1510, 1511, 1574, 1573
1512, 1511, 1512, 1575, 1574
1513, 1575, 1513, 1576, 1638
1514, 1513, 1514, 1577, 1576
1515, 1514, 1515, 1578, 1577
1516, 1515, 1516, 1579, 1578
1517, 1516, 1517, 1580, 1579
1518, 1517, 1518, 1581, 1580
1519, 1518, 1519, 1582, 1581
1520, 1519, 1520, 1583, 1582
1521, 1520, 1521, 1584, 1583
1522, 1521, 1522, 1585, 1584
1523, 1522, 1523, 1586, 1585
1524, 1523, 1524, 1587, 1586
1525, 1524, 1525, 1588, 1587
1526, 1525, 1526, 1589, 1588
1527, 1526, 1527, 1590, 1589
1528, 1527, 1528, 1591, 1590
1529, 1528, 1529, 1592, 1591
1530, 1529, 1530, 1593, 1592
1531, 1530, 1531, 1594, 1593
1532, 1531, 1532, 1595, 1594
1533, 1532, 1533, 1596, 1595
1534, 1533, 1534, 1597, 1596
1535, 1534, 1535, 1598, 1597
1536, 1535, 1536, 1599, 1598
1537, 1536, 1537, 1600, 1599
1538, 1537, 1538, 1601, 1600
1539, 1538, 1539, 1602, 1601
1540, 1539, 1540, 1603, 1602
1541, 1540, 1541, 1604, 1603
1542, 1541, 1542, 1605, 1604
1543, 1542, 1543, 1606, 1605
1544, 1543, 1544, 1607, 1606
1545, 1544, 1545, 1608, 1607
1546, 1545, 1546, 1609, 1608
1547, 1546, 1547, 1610, 1609
1548, 1547, 1548, 1611, 1610
1549, 1548, 1549, 1612, 1611
1550, 1549, 1550, 1613, 1612
1551, 1550, 1551, 1614, 1613
1552, 1551, 1552, 1615, 1614
1553, 1552, 1553, 1616, 1615
1554, 1553, 1554, 1617, 1616
1555, 1554, 1555, 1618, 1617
1556, 1555, 1556, 1619, 1618
1557, 1556, 1557, 1620, 1619
1558, 1557, 1558, 1621, 1620
1559, 1558, 1559, 1622, 1621
1560, 1559, 1560, 1623, 1622
1561, 1560, 1561, 1624, 1623
1562, 1561, 1562, 1625, 1624
1563, 1562, 1563, 1626, 1625
1564, 1563, 1564, 1627, 1626
1565, 1564, 1565, 1628, 1627
1566, 1565, 1566, 1629, 1628
1567, 1566, 1567, 1630, 1629
1568, 1567, 1568, 1631, 1630
1569, 1568, 1569, 1632, 1631
1570, 1569, 1570, 1633, 1632
1571, 1570, 1571, 1634, 1633
1572, 1571, 1572, 1635, 1634
1573, 1572, 1573, 1636, 1635
1574, 1573, 1574, 1637, 1636
1575, 1574, 1575, 1638, 1637
1576, 1638, 1576, 1639, 1701
1577, 1576, 1577, 1640, 1639
1578, 1577, 1578, 1641, 1640
1579, 1578, 1579, 1642, 1641
1580, 1579, 1580, 1643, 1642
1581, 1580, 1581, 1644, 1643
1582, 1581, 1582, 1645, 1644
1583, 1582, 1583, 1646, 1645
1584, 1583, 1584, 1647, 1646
1585, 1584, 1585, 1648, 1647
1586, 1585, 1586, 1649, 1648
1587, 1586, 1587, 1650, 1649
1588, 1587, 1588, 1651, 1650
1589, 1588, 1589, 1652, 1651
1590, 1589, 1590, 1653, 1652
1591, 1590, 1591, 1654, 1653
1592, 1591, 1592, 1655, 1654
1593, 1592, 1593, 1656, 1655
1594, 1593, 1594, 1657, 1656
1595, 1594, 1595, 1658, 1657
1596, 1595, 1596, 1659, 1658
1597, 1596, 1597, 1660, 1659
1598, 1597, 1598, 1661, 1660
1599, 1598, 1599, 1662, 1661
1600, 1599, 1600, 1663, 1662
1601, 1600, 1601, 1664, 1663
1602, 1601, 1602, 1665, 1664
1603, 1602, 1603, 1666, 1665
1604, 1603, 1604, 1667, 1666
1605, 1604, 1605, 1668, 1667
1606, 1605, 1606, 1669, 1668
1607, 1606, 1607, 1670, 1669
1608, 1607, 1608, 1671, 1670
1609, 1608, 1609, 1672, 1671
1610, 1609, 1610, 1673, 1672
1611, 1610, 1611, 1674, 1673
1612, 1611, 1612, 1675, 1674
1613, 1612, 1613, 1676, 1675
1614, 1613, 1614, 1677, 1676
1615, 1614, 1615, 1678, 1677
1616, 1615, 1616, 1679, 1678
1617, 1616, 1617, 1680, 1679
1618, 1617, 1618, 1681, 1680
1619, 1618, 1619, 1682, 1681
1620, 1619, 1620, 1683, 1682
1621, 1620, 1621, 1684, 1683
1622, 1621, 1622, 1685, 1684
1623, 1622, 1623, 1686, 1685
1624, 1623, 1624, 1687, 1686
1625, 1624, 1625, 1688, 1687
1626, 1625, 1626, 1689, 1688
1627, 1626, 1627, 1690, 1689
1628, 1627, 1628, 1691, 1690
1629, 1628, 1629, 1692, 1691
1630, 1629, 1630, 1693, 1692
1631, 1630, 1631, 1694, 1693
1632, 1631, 1632, 1695, 1694
1633, 1632, 1633, 1696, 1695
1634, 1633, 1634, 1697, 1696
1635, 1634, 1635, 1698, 1697
1636, 1635, 1636, 1699, 1698
1637, 1636, 1637, 1700, 1699
1638, 1637, 1638, 1701, 1700
1639, 1701, 1639, 1702, 1764
1640, 1639, 1640, 1703, 1702
1641, 1640, 1641, 1704, 1703
1642, 1641, 1642, 1705, 1704
1643, 1642, 1643, 1706, 1705
1644, 1643, 1644, 1707, 1706
1645, 1644, 1645, 1708, 1707
1646, 1645, 1646, 1709, 1708
1647, 1646, 1647, 1710, 1709
1648, 1647, 1648, 1711, 1710
1649, 1648, 1649, 1712, 1711
1650, 1649, 1650, 1713, 1712
1651, 1650, 1651, 1714, 1713
1652, 1651, 1652, 1715, 1714
1653, 1652, 1653, 1716, 1715
1654, 1653, 1654, 1717, 1716
1655, 1654, 1655, 1718, 1717
1656, 1655, 1656, 1719, 1718
1657, 1656, 1657, 1720, 1719
1658, 1657, 1658, 1721, 1720
1659, 1658, 1659, 1722, 1721
1660, 1659, 1660, 1723, 1722
1661, 1660, 1661, 1724, 1723
1662, 1661, 1662, 1725, 1724
1663, 1662, 1663, 1726, 1725
1664, 1663, 1664, 1727, 1726
1665, 1664, 1665, 1728, 1727
1666, 1665, 1666, 1729, 1728
1667, 1666, 1667, 1730, 1729
1668, 1667, 1668, 1731, 1730
1669, 1668, 1669, 1732, 1731
1670, 1669, 1670, 1733, 1732
1671, 1670, 1671, 1734, 1733
1672, 1671, 1672, 1735, 1734
1673, 1672, 1673, 1736, 1735
1674, 1673, 1674, 1737, 1736
1675, 1674, 1675, 1738, 1737
1676, 1675, 1676, 1739, 1738
1677, 1676, 1677, 1740, 1739
1678, 1677, 1678, 1741, 1740
1679, 1678, 1679, 1742, 1741
1680, 1679, 1680, 1743, 1742
1681, 1680, 1681, 1744, 1743
1682, 1681, 1682, 1745, 1744
1683, 1682, 1683, 1746, 1745
1684, 1683, 1684, 1747, 1746
1685, 1684, 1685, 1748, 1747
1686, 1685, 1686, 1749, 1748
1687, 1686, 1687, 1750, 1749
1688, 1687, 1688, 1751, 1750
1689, 1688, 1689, 1752, 1751
1690, 1689, 1690, 1753, 1752
1691, 1690, 1691, 1754, 1753
1692, 1691, 1692, 1755, 1754
1693, 1692, 1693, 1756, 1755
1694, 1693, 1694, 1757, 1756
1695, 1694, 1695, 1758, 1757
1696, 1695, 1696, 1759, 1758
1697, 1696, 1697, 1760, 1759
1698, 1697, 1698, 1761, 1760
1699, 1698, 1699, 1762, 1761
1700, 1699, 1700, 1763, 1762
1701, 1700, 1701, 1764, 1763
1702, 1764, 1702, 1765, 1827
1703, 1702, 1703, 1766, 1765
1704, 1703, 1704, 1767, 1766
1705, 1704, 1705, 1768, 1767
1706, 1705, 1706, 1769, 1768
1707, 1706, 1707, 1770, 1769
1708, 1707, 1708, 1771, 1770
1709, 1708, 1709, 1772, 1771
1710, 1709, 1710, 1773, 1772
1711, 1710, 1711, 1774, 1773
1712, 1711, 1712, 1775, 1774
1713, 1712, 1713, 1776, 1775
1714, 1713, 1714, 1777, 1776
1715, 1714, 1715, 1778, 1777
1716, 1715, 1716, 1779, 1778
1717, 1716, 1717, 1780, 1779
1718, 1717, 1718, 1781, 1780
1719, 1718, 1719, 1782, 1781
1720, 1719, 1720, 1783, 1782
1721, 1720, 1721, 1784, 1783
1722, 1721, 1722, 1785, 1784
1723, 1722, 1723, 1786, 1785
1724, 1723, 1724, 1787, 1786
1725, 1724, 1725, 1788, 1787
1726, 1725, 1726, 1789, 1788
1727, 1726, 1727, 1790, 1789
1728, 1727, 1728, 1791, 1790
1729, 1728, 1729, 1792, 1791
1730, 1729, 1730, 1793, 1792
1731, 1730, 1731, 1794, 1793
1732, 1731, 1732, 1795, 1794
1733, 1732, 1733, 1796, 1795
1734, 1733, 1734, 1797, 1796
1735, 1734, 1735, 1798, 1797
1736, 1735, 1736, 1799, 1798
1737, 1736, 1737, 1800, 1799
1738, 1737, 1738, 1801, 1800
1739, 1738, 1739, 1802, 1801
1740, 1739, 1740, 1803, 1802
1741, 1740, 1741, 1804, 1803
1742, 1741, 1742, 1805, 1804
1743, 1742, 1743, 1806, 1805
1744, 1743, 1744, 1807, 1806
1745, 1744, 1745, 1808, 1807
1746, 1745, 1746, 1809, 1808
1747, 1746, 1747, 1810, 1809
1748, 1747, 1748, 1811, 1810
1749, 1748, 1749, 1812, 1811
1750, 1749, 1750, 1813, 1812
1751, 1750, 1751, 1814, 1813
1752, 1751, 1752, 1815, 1814
1753, 1752, 1753, 1816, 1815
1754, 1753, 1754, 1817, 1816
1755, 1754, 1755, 1818, 1817
1756, 1755, 1756, 1819, 1818
1757, 1756, 1757, 1820, 1819
1758, 1757, 1758, 1821, 1820
1759, 1758, 1759, 1822, 1821
1760, 1759, 1760, 1823, 1822
1761, 1760, 1761, 1824, 1823
1762, 1761, 1762, 1825, 1824
1763, 1762, 1763, 1826, 1825
1764, 1763, 1764, 1827, 1826
1765, 1827, 1765, 1828, 1890
1766, 1765, 1766, 1829, 1828
1767, 1766, 1767, 1830, 1829
1768, 1767, 1768, 1831, 1830
1769, 1768, 1769, 1832, 1831
1770, 1769, 1770, 1833, 1832
1771, 1770, 1771, 1834, 1833
1772, 1771, 1772, 1835, 1834
1773, 1772, 1773, 1836, 1835
1774, 1773, 1774, 1837, 1836
1775, 1774, 1775, 1838, 1837
1776, 1775, 1776, 1839, 1838
1777, 1776, 1777, 1840, 1839
1778, 1777, 1778, 1841, 1840
1779, 1778, 1779, 1842, 1841
1780, 1779, 1780, 1843, 1842
1781, 1780, 1781, 1844, 1843
1782, 1781, 1782, 1845, 1844
1783, 1782, 1783, 1846, 1845
1784, 1783, 1784, 1847, 1846
1785, 1784, 1785, 1848, 1847
1786, 1785, 1786, 1849, 1848
1787, 1786, 1787, 1850, 1849
1788, 1787, 1788, 1851, 1850
1789, 1788, 1789, 1852, 1851
1790, 1789, 1790, 1853, 1852
1791, 1790, 1791, 1854, 1853
1792, 1791, 1792, 1855, 1854
1793, 1792, 1793, 1856, 1855
1794, 1793, 1794, 1857, 1856
1795, 1794, 1795, 1858, 1857
1796, 1795, 1796, 1859, 1858
1797, 1796, 1797, 1860, 1859
1798, 1797, 1798, 1861, 1860
1799, 1798, 1799, 1862, 1861
1800, 1799, 1800, 1863, 1862
1801, 1800, 1801, 1864, 1863
1802, 1801, 1802, 1865, 1864
1803, 1802, 1803, 1866, 1865
1804, 1803, 1804, 1867, 1866
1805, 1804, 1805, 1868, 1867
1806, 1805, 1806, 1869, 1868
1807, 1806, 1807, 1870, 1869
1808, 1807, 1808, 1871, 1870
1809, 1808, 1809, 1872, 1871
1810, 1809, 1810, 1873, 1872
1811, 1810, 1811, 1874, 1873
1812, 1811, 1812, 1875, 1874
1813, 1812, 1813, 1876, 1875
1814, 1813, 1814, 1877, 1876
1815, 1814, 1815, 1878, 1877
1816, 1815, 1816, 1879, 1878
1817, 1816, 1817, 1880, 1879
1818, 1817, 1818, 1881, 1880
1819, 1818, 1819, 1882, 1881
1820, 1819, 1820, 1883, 1882
1821, 1820, 1821, 1884, 1883
1822, 1821, 1822, 1885, 1884
1823, 1822, 1823, 1886, 1885
1824, 1823, 1824, 1887, 1886
1825, 1824, 1825, 1888, 1887
1826, 1825, 1826, 1889, 1888
1827, 1826, 1827, 1890, 1889
1828, 1890, 1828, 1891, 1953
1829, 1828, 1829, 1892, 1891
1830, 1829, 1830, 1893, 1892
1831, 1830, 1831, 1894, 1893
1832, 1831, 1832, 1895, 1894
1833, 1832, 1833, 1896, 1895
1834, 1833, 1834, 1897, 1896
1835, 1834, 1835, 1898, 1897
1836, 1835, 1836, 1899, 1898
1837, 1836, 1837, 1900, 1899
1838, 1837, 1838, 1901, 1900
1839, 1838, 1839, 1902, 1901
1840, 1839, 1840, 1903, 1902
1841, 1840, 1841, 1904, 1903
1842, 1841, 1842, 1905, 1904
1843, 1842, 1843, 1906, 1905
1844, 1843, 1844, 1907, 1906
1845, 1844, 1845, 1908, 1907
1846, 1845, 1846, 1909, 1908
1847, 1846, 1847, 1910, 1909
1848, 1847, 1848, 1911, 1910
1849, 1848, 1849, 1912, 1911
1850, 1849, 1850, 1913, 1912
1851, 1850, 1851, 1914, 1913
1852, 1851, 1852, 1915, 1914
1853, 1852, 1853, 1916, 1915
1854, 1853, 1854, 1917, 1916
1855, 1854, 1855, 1918, 1917
1856, 1855, 1856, 1919, 1918
1857, 1856, 1857, 1920, 1919
1858, 1857, 1858, 1921, 1920
1859, 1858, 1859, 1922, 1921
1860, 1859, 1860, 1923, 1922
1861, 1860, 1861, 1924, 1923
1862, 1861, 1862, 1925, 1924
1863, 1862, 1863, 1926, 1925
1864, 1863, 1864, 1927, 1926
1865, 1864, 1865, 1928, 1927
1866, 1865, 1866, 1929, 1928
1867, 1866, 1867, 1930, 1929
1868, 1867, 1868, 1931, 1930
1869, 1868, 1869, 1932, 1931
1870, 1869, 1870, 1933, 1932
1871, 1870, 1871, 1934, 1933
1872, 1871, 1872, 1935, 1934
1873, 1872, 1873, 1936, 1935
1874, 1873, 1874, 1937, 1936
1875, 1874, 1875, 1938, 1937
1876, 1875, 1876, 1939, 1938
1877, 1876, 1877, 1940, 1939
1878, 1877, 1878, 1941, 1940
1879, 1878, 1879, 1942, 1941
1880, 1879, 1880, 1943, 1942
1881, 1880, 1881, 1944, 1943
1882, 1881, 1882, 1945, 1944
1883, 1882, 1883, 1946, 1945
1884, 1883, 1884, 1947, 1946
1885, 1884, 1885, 1948, 1947
1886, 1885, 1886, 1949, 1948
1887, 1886, 1887, 1950, 1949
1888, 1887, 1888, 1951, 1950
1889, 1888, 1889, 1952, 1951
1890, 1889, 1890, 1953, 1952
*Orientation, name=Ori-1
1., 0., 0., 0., 1., 0.
1, 0.
** Region: (CompositeLayup-1-1: Generated From Layup)
*Elset, elset=CompositeLayup-1-1, generate
    1,  1890,     1
** Section: CompositeLayup-1-1
*Shell Section, elset=CompositeLayup-1-1, composite, orientation=Ori-1, density=0., layup=CompositeLayup-1
0.49375, 3, Composite, 69.94, Ply-1
0.49375, 3, Composite, -69.94, Ply-2
0.49375, 3, Composite, 18.188, Ply-3
0.49375, 3, Composite, -18.188, Ply-4
0.49375, 3, Composite, 69.94, Ply-5
0.49375, 3, Composite, -69.94, Ply-6
0.49375, 3, Composite, 18.188, Ply-7
0.49375, 3, Composite, -18.188, Ply-8
0.49375, 3, Composite, 69.94, Ply-9
0.49375, 3, Composite, -69.94, Ply-10
0.49375, 3, Composite, 18.188, Ply-11
0.49375, 3, Composite, -18.188, Ply-12
0.49375, 3, Composite, 69.94, Ply-13
0.49375, 3, Composite, -69.94, Ply-14
0.49375, 3, Composite, 18.188, Ply-15
0.49375, 3, Composite, -18.188, Ply-16
0.49375, 3, Composite, 69.94, Ply-17
0.49375, 3, Composite, -69.94, Ply-18
0.49375, 3, Composite, 18.188, Ply-19
0.49375, 3, Composite, -18.188, Ply-20
0.49375, 3, Composite, 69.94, Ply-21
0.49375, 3, Composite, -69.94, Ply-22
0.49375, 3, Composite, 18.188, Ply-23
0.49375, 3, Composite, -18.188, Ply-24
0.49375, 3, Composite, 69.94, Ply-25
0.49375, 3, Composite, -69.94, Ply-26
0.49375, 3, Composite, 18.188, Ply-27
0.49375, 3, Composite, -18.188, Ply-28
0.49375, 3, Composite, 69.94, Ply-29
0.49375, 3, Composite, -69.94, Ply-30
0.49375, 3, Composite, 18.188, Ply-31
0.49375, 3, Composite, -18.188, Ply-32
0.49375, 3, Composite, 69.94, Ply-33
0.49375, 3, Composite, -69.94, Ply-34
0.49375, 3, Composite, 18.188, Ply-35
0.49375, 3, Composite, -18.188, Ply-36
0.49375, 3, Composite, 69.94, Ply-37
0.49375, 3, Composite, -69.94, Ply-38
0.49375, 3, Composite, 18.188, Ply-39
0.49375, 3, Composite, -18.188, Ply-40
*End Part
**
**
** ASSEMBLY
**
*Assembly, name=Assembly
**
*Instance, name=CompositeHull-1, part=CompositeHull
*End Instance
**
*Nset, nset=_PickedSet5, internal, instance=CompositeHull-1, generate
  1,  63,   1
*Elset, elset=_PickedSet5, internal, instance=CompositeHull-1, generate
  1,  63,   1
*Nset, nset=_PickedSet6, internal, instance=CompositeHull-1, generate
 1891,  1953,     1
*Elset, elset=_PickedSet6, internal, instance=CompositeHull-1, generate
 1828,  1890,     1
*Elset, elset=__PickedSurf4_SPOS, internal, instance=CompositeHull-1, generate
    1,  1890,     1
*Surface, type=ELEMENT, name=_PickedSurf4, internal
__PickedSurf4_SPOS, SPOS
*End Assembly
**
** MATERIALS
**
*Material, name=Composite
*Density
 1.6e-09,
*Elastic, type=LAMINA
218000.,9070.,  0.3,6350.,6350.,5080.
*Fail Stress
2088.,1212., 22.5, 196., 61.1,   0.,   0.
**
** BOUNDARY CONDITIONS
**
** Name: BC-End-0 Type: �Գ�/���Գ�/��ȫ�̶�
*Boundary
_PickedSet5, ENCASTRE
** Name: BC-End-1 Type: �Գ�/���Գ�/��ȫ�̶�
*Boundary
_PickedSet6, ENCASTRE
** ----------------------------------------------------------------
**
** STEP: Step-1
**
*Step, name=Step-1, nlgeom=NO, perturbation
*Buckle
8, , 12, 300
**
** BOUNDARY CONDITIONS
**
** Name: BC-End-0 Type: �Գ�/���Գ�/��ȫ�̶�
*Boundary, op=NEW, load case=1
_PickedSet5, ENCASTRE
*Boundary, op=NEW, load case=2
_PickedSet5, ENCASTRE
** Name: BC-End-1 Type: �Գ�/���Գ�/��ȫ�̶�
*Boundary, op=NEW, load case=1
_PickedSet6, ENCASTRE
*Boundary, op=NEW, load case=2
_PickedSet6, ENCASTRE
**
** LOADS
**
** Name: ExternalPressure   Type: Pressure
*Dsload
_PickedSurf4, P, 1.
**
** OUTPUT REQUESTS
**
*Restart, write, frequency=0
**
** FIELD OUTPUT: F-Output-1
**
*Output, field, variable=PRESELECT
*Node File
U
*End Step
