*Heading
 CSDM_cph pressure hull linear buckling
** Job name: C6 Model name: CPH_Model
** Generated by: Abaqus/CAE 2023
*Preprint, echo=NO, model=NO, history=NO, contact=NO
**
** PARTS
**
*Part, name=CompositeHull
*Node
      1,   85.4169159,           0.,   -14.253562
      2,   81.9058838,           0.,  -28.1183243
      3,   76.1606674,           0.,  -41.2160912
      4,   68.3379898,           0.,  -53.1895943
      5,   58.6512299,           0.,  -63.7122192
      6,   47.3646164,           0.,  -72.4969406
      7,   34.7860222,           0.,  -79.3041382
      8,   21.2585526,           0.,  -83.9481277
      9,   7.15120602,           0.,  -86.3022232
     10,  -7.15120602,           0.,  -86.3022232
     11,  -21.2585526,           0.,  -83.9481277
     12,  -34.7860222,           0.,  -79.3041382
     13,  -47.3646164,           0.,  -72.4969406
     14,  -58.6512299,           0.,  -63.7122192
     15,  -68.3379898,           0.,  -53.1895943
     16,  -76.1606674,           0.,  -41.2160912
     17,  -81.9058838,           0.,  -28.1183243
     18,  -85.4169159,           0.,   -14.253562
     19,  -86.5979996,           0.,           0.
     20,  -85.4169159,           0.,    14.253562
     21,  -81.9058838,           0.,   28.1183243
     22,  -76.1606674,           0.,   41.2160912
     23,  -68.3379898,           0.,   53.1895943
     24,  -58.6512299,           0.,   63.7122192
     25,  -47.3646164,           0.,   72.4969406
     26,  -34.7860222,           0.,   79.3041382
     27,  -21.2585526,           0.,   83.9481277
     28,  -7.15120602,           0.,   86.3022232
     29,   7.15120602,           0.,   86.3022232
     30,   21.2585526,           0.,   83.9481277
     31,   34.7860222,           0.,   79.3041382
     32,   47.3646164,           0.,   72.4969406
     33,   58.6512299,           0.,   63.7122192
     34,   68.3379898,           0.,   53.1895943
     35,   76.1606674,           0.,   41.2160912
     36,   81.9058838,           0.,   28.1183243
     37,   85.4169159,           0.,    14.253562
     38,   86.5979996,           0.,           0.
     39,   85.4169159,   14.1412334,   -14.253562
     40,   81.9058838,   14.1412334,  -28.1183243
     41,   76.1606674,   14.1412334,  -41.2160912
     42,   68.3379898,   14.1412334,  -53.1895943
     43,   58.6512299,   14.1412334,  -63.7122192
     44,   47.3646164,   14.1412334,  -72.4969406
     45,   34.7860222,   14.1412334,  -79.3041382
     46,   21.2585526,   14.1412334,  -83.9481277
     47,   7.15120602,   14.1412334,  -86.3022232
     48,  -7.15120602,   14.1412334,  -86.3022232
     49,  -21.2585526,   14.1412334,  -83.9481277
     50,  -34.7860222,   14.1412334,  -79.3041382
     51,  -47.3646164,   14.1412334,  -72.4969406
     52,  -58.6512299,   14.1412334,  -63.7122192
     53,  -68.3379898,   14.1412334,  -53.1895943
     54,  -76.1606674,   14.1412334,  -41.2160912
     55,  -81.9058838,   14.1412334,  -28.1183243
     56,  -85.4169159,   14.1412334,   -14.253562
     57,  -86.5979996,   14.1412334,           0.
     58,  -85.4169159,   14.1412334,    14.253562
     59,  -81.9058838,   14.1412334,   28.1183243
     60,  -76.1606674,   14.1412334,   41.2160912
     61,  -68.3379898,   14.1412334,   53.1895943
     62,  -58.6512299,   14.1412334,   63.7122192
     63,  -47.3646164,   14.1412334,   72.4969406
     64,  -34.7860222,   14.1412334,   79.3041382
     65,  -21.2585526,   14.1412334,   83.9481277
     66,  -7.15120602,   14.1412334,   86.3022232
     67,   7.15120602,   14.1412334,   86.3022232
     68,   21.2585526,   14.1412334,   83.9481277
     69,   34.7860222,   14.1412334,   79.3041382
     70,   47.3646164,   14.1412334,   72.4969406
     71,   58.6512299,   14.1412334,   63.7122192
     72,   68.3379898,   14.1412334,   53.1895943
     73,   76.1606674,   14.1412334,   41.2160912
     74,   81.9058838,   14.1412334,   28.1183243
     75,   85.4169159,   14.1412334,    14.253562
     76,   86.5979996,   14.1412334,           0.
     77,   85.4169159,   28.2824669,   -14.253562
     78,   81.9058838,   28.2824669,  -28.1183243
     79,   76.1606674,   28.2824669,  -41.2160912
     80,   68.3379898,   28.2824669,  -53.1895943
     81,   58.6512299,   28.2824669,  -63.7122192
     82,   47.3646164,   28.2824669,  -72.4969406
     83,   34.7860222,   28.2824669,  -79.3041382
     84,   21.2585526,   28.2824669,  -83.9481277
     85,   7.15120602,   28.2824669,  -86.3022232
     86,  -7.15120602,   28.2824669,  -86.3022232
     87,  -21.2585526,   28.2824669,  -83.9481277
     88,  -34.7860222,   28.2824669,  -79.3041382
     89,  -47.3646164,   28.2824669,  -72.4969406
     90,  -58.6512299,   28.2824669,  -63.7122192
     91,  -68.3379898,   28.2824669,  -53.1895943
     92,  -76.1606674,   28.2824669,  -41.2160912
     93,  -81.9058838,   28.2824669,  -28.1183243
     94,  -85.4169159,   28.2824669,   -14.253562
     95,  -86.5979996,   28.2824669,           0.
     96,  -85.4169159,   28.2824669,    14.253562
     97,  -81.9058838,   28.2824669,   28.1183243
     98,  -76.1606674,   28.2824669,   41.2160912
     99,  -68.3379898,   28.2824669,   53.1895943
    100,  -58.6512299,   28.2824669,   63.7122192
    101,  -47.3646164,   28.2824669,   72.4969406
    102,  -34.7860222,   28.2824669,   79.3041382
    103,  -21.2585526,   28.2824669,   83.9481277
    104,  -7.15120602,   28.2824669,   86.3022232
    105,   7.15120602,   28.2824669,   86.3022232
    106,   21.2585526,   28.2824669,   83.9481277
    107,   34.7860222,   28.2824669,   79.3041382
    108,   47.3646164,   28.2824669,   72.4969406
    109,   58.6512299,   28.2824669,   63.7122192
    110,   68.3379898,   28.2824669,   53.1895943
    111,   76.1606674,   28.2824669,   41.2160912
    112,   81.9058838,   28.2824669,   28.1183243
    113,   85.4169159,   28.2824669,    14.253562
    114,   86.5979996,   28.2824669,           0.
    115,   85.4169159,   42.4236984,   -14.253562
    116,   81.9058838,   42.4236984,  -28.1183243
    117,   76.1606674,   42.4236984,  -41.2160912
    118,   68.3379898,   42.4236984,  -53.1895943
    119,   58.6512299,   42.4236984,  -63.7122192
    120,   47.3646164,   42.4236984,  -72.4969406
    121,   34.7860222,   42.4236984,  -79.3041382
    122,   21.2585526,   42.4236984,  -83.9481277
    123,   7.15120602,   42.4236984,  -86.3022232
    124,  -7.15120602,   42.4236984,  -86.3022232
    125,  -21.2585526,   42.4236984,  -83.9481277
    126,  -34.7860222,   42.4236984,  -79.3041382
    127,  -47.3646164,   42.4236984,  -72.4969406
    128,  -58.6512299,   42.4236984,  -63.7122192
    129,  -68.3379898,   42.4236984,  -53.1895943
    130,  -76.1606674,   42.4236984,  -41.2160912
    131,  -81.9058838,   42.4236984,  -28.1183243
    132,  -85.4169159,   42.4236984,   -14.253562
    133,  -86.5979996,   42.4236984,           0.
    134,  -85.4169159,   42.4236984,    14.253562
    135,  -81.9058838,   42.4236984,   28.1183243
    136,  -76.1606674,   42.4236984,   41.2160912
    137,  -68.3379898,   42.4236984,   53.1895943
    138,  -58.6512299,   42.4236984,   63.7122192
    139,  -47.3646164,   42.4236984,   72.4969406
    140,  -34.7860222,   42.4236984,   79.3041382
    141,  -21.2585526,   42.4236984,   83.9481277
    142,  -7.15120602,   42.4236984,   86.3022232
    143,   7.15120602,   42.4236984,   86.3022232
    144,   21.2585526,   42.4236984,   83.9481277
    145,   34.7860222,   42.4236984,   79.3041382
    146,   47.3646164,   42.4236984,   72.4969406
    147,   58.6512299,   42.4236984,   63.7122192
    148,   68.3379898,   42.4236984,   53.1895943
    149,   76.1606674,   42.4236984,   41.2160912
    150,   81.9058838,   42.4236984,   28.1183243
    151,   85.4169159,   42.4236984,    14.253562
    152,   86.5979996,   42.4236984,           0.
    153,   85.4169159,   56.5649338,   -14.253562
    154,   81.9058838,   56.5649338,  -28.1183243
    155,   76.1606674,   56.5649338,  -41.2160912
    156,   68.3379898,   56.5649338,  -53.1895943
    157,   58.6512299,   56.5649338,  -63.7122192
    158,   47.3646164,   56.5649338,  -72.4969406
    159,   34.7860222,   56.5649338,  -79.3041382
    160,   21.2585526,   56.5649338,  -83.9481277
    161,   7.15120602,   56.5649338,  -86.3022232
    162,  -7.15120602,   56.5649338,  -86.3022232
    163,  -21.2585526,   56.5649338,  -83.9481277
    164,  -34.7860222,   56.5649338,  -79.3041382
    165,  -47.3646164,   56.5649338,  -72.4969406
    166,  -58.6512299,   56.5649338,  -63.7122192
    167,  -68.3379898,   56.5649338,  -53.1895943
    168,  -76.1606674,   56.5649338,  -41.2160912
    169,  -81.9058838,   56.5649338,  -28.1183243
    170,  -85.4169159,   56.5649338,   -14.253562
    171,  -86.5979996,   56.5649338,           0.
    172,  -85.4169159,   56.5649338,    14.253562
    173,  -81.9058838,   56.5649338,   28.1183243
    174,  -76.1606674,   56.5649338,   41.2160912
    175,  -68.3379898,   56.5649338,   53.1895943
    176,  -58.6512299,   56.5649338,   63.7122192
    177,  -47.3646164,   56.5649338,   72.4969406
    178,  -34.7860222,   56.5649338,   79.3041382
    179,  -21.2585526,   56.5649338,   83.9481277
    180,  -7.15120602,   56.5649338,   86.3022232
    181,   7.15120602,   56.5649338,   86.3022232
    182,   21.2585526,   56.5649338,   83.9481277
    183,   34.7860222,   56.5649338,   79.3041382
    184,   47.3646164,   56.5649338,   72.4969406
    185,   58.6512299,   56.5649338,   63.7122192
    186,   68.3379898,   56.5649338,   53.1895943
    187,   76.1606674,   56.5649338,   41.2160912
    188,   81.9058838,   56.5649338,   28.1183243
    189,   85.4169159,   56.5649338,    14.253562
    190,   86.5979996,   56.5649338,           0.
    191,   85.4169159,   70.7061691,   -14.253562
    192,   81.9058838,   70.7061691,  -28.1183243
    193,   76.1606674,   70.7061691,  -41.2160912
    194,   68.3379898,   70.7061691,  -53.1895943
    195,   58.6512299,   70.7061691,  -63.7122192
    196,   47.3646164,   70.7061691,  -72.4969406
    197,   34.7860222,   70.7061691,  -79.3041382
    198,   21.2585526,   70.7061691,  -83.9481277
    199,   7.15120602,   70.7061691,  -86.3022232
    200,  -7.15120602,   70.7061691,  -86.3022232
    201,  -21.2585526,   70.7061691,  -83.9481277
    202,  -34.7860222,   70.7061691,  -79.3041382
    203,  -47.3646164,   70.7061691,  -72.4969406
    204,  -58.6512299,   70.7061691,  -63.7122192
    205,  -68.3379898,   70.7061691,  -53.1895943
    206,  -76.1606674,   70.7061691,  -41.2160912
    207,  -81.9058838,   70.7061691,  -28.1183243
    208,  -85.4169159,   70.7061691,   -14.253562
    209,  -86.5979996,   70.7061691,           0.
    210,  -85.4169159,   70.7061691,    14.253562
    211,  -81.9058838,   70.7061691,   28.1183243
    212,  -76.1606674,   70.7061691,   41.2160912
    213,  -68.3379898,   70.7061691,   53.1895943
    214,  -58.6512299,   70.7061691,   63.7122192
    215,  -47.3646164,   70.7061691,   72.4969406
    216,  -34.7860222,   70.7061691,   79.3041382
    217,  -21.2585526,   70.7061691,   83.9481277
    218,  -7.15120602,   70.7061691,   86.3022232
    219,   7.15120602,   70.7061691,   86.3022232
    220,   21.2585526,   70.7061691,   83.9481277
    221,   34.7860222,   70.7061691,   79.3041382
    222,   47.3646164,   70.7061691,   72.4969406
    223,   58.6512299,   70.7061691,   63.7122192
    224,   68.3379898,   70.7061691,   53.1895943
    225,   76.1606674,   70.7061691,   41.2160912
    226,   81.9058838,   70.7061691,   28.1183243
    227,   85.4169159,   70.7061691,    14.253562
    228,   86.5979996,   70.7061691,           0.
    229,   85.4169159,   84.8473969,   -14.253562
    230,   81.9058838,   84.8473969,  -28.1183243
    231,   76.1606674,   84.8473969,  -41.2160912
    232,   68.3379898,   84.8473969,  -53.1895943
    233,   58.6512299,   84.8473969,  -63.7122192
    234,   47.3646164,   84.8473969,  -72.4969406
    235,   34.7860222,   84.8473969,  -79.3041382
    236,   21.2585526,   84.8473969,  -83.9481277
    237,   7.15120602,   84.8473969,  -86.3022232
    238,  -7.15120602,   84.8473969,  -86.3022232
    239,  -21.2585526,   84.8473969,  -83.9481277
    240,  -34.7860222,   84.8473969,  -79.3041382
    241,  -47.3646164,   84.8473969,  -72.4969406
    242,  -58.6512299,   84.8473969,  -63.7122192
    243,  -68.3379898,   84.8473969,  -53.1895943
    244,  -76.1606674,   84.8473969,  -41.2160912
    245,  -81.9058838,   84.8473969,  -28.1183243
    246,  -85.4169159,   84.8473969,   -14.253562
    247,  -86.5979996,   84.8473969,           0.
    248,  -85.4169159,   84.8473969,    14.253562
    249,  -81.9058838,   84.8473969,   28.1183243
    250,  -76.1606674,   84.8473969,   41.2160912
    251,  -68.3379898,   84.8473969,   53.1895943
    252,  -58.6512299,   84.8473969,   63.7122192
    253,  -47.3646164,   84.8473969,   72.4969406
    254,  -34.7860222,   84.8473969,   79.3041382
    255,  -21.2585526,   84.8473969,   83.9481277
    256,  -7.15120602,   84.8473969,   86.3022232
    257,   7.15120602,   84.8473969,   86.3022232
    258,   21.2585526,   84.8473969,   83.9481277
    259,   34.7860222,   84.8473969,   79.3041382
    260,   47.3646164,   84.8473969,   72.4969406
    261,   58.6512299,   84.8473969,   63.7122192
    262,   68.3379898,   84.8473969,   53.1895943
    263,   76.1606674,   84.8473969,   41.2160912
    264,   81.9058838,   84.8473969,   28.1183243
    265,   85.4169159,   84.8473969,    14.253562
    266,   86.5979996,   84.8473969,           0.
    267,   85.4169159,   98.9886322,   -14.253562
    268,   81.9058838,   98.9886322,  -28.1183243
    269,   76.1606674,   98.9886322,  -41.2160912
    270,   68.3379898,   98.9886322,  -53.1895943
    271,   58.6512299,   98.9886322,  -63.7122192
    272,   47.3646164,   98.9886322,  -72.4969406
    273,   34.7860222,   98.9886322,  -79.3041382
    274,   21.2585526,   98.9886322,  -83.9481277
    275,   7.15120602,   98.9886322,  -86.3022232
    276,  -7.15120602,   98.9886322,  -86.3022232
    277,  -21.2585526,   98.9886322,  -83.9481277
    278,  -34.7860222,   98.9886322,  -79.3041382
    279,  -47.3646164,   98.9886322,  -72.4969406
    280,  -58.6512299,   98.9886322,  -63.7122192
    281,  -68.3379898,   98.9886322,  -53.1895943
    282,  -76.1606674,   98.9886322,  -41.2160912
    283,  -81.9058838,   98.9886322,  -28.1183243
    284,  -85.4169159,   98.9886322,   -14.253562
    285,  -86.5979996,   98.9886322,           0.
    286,  -85.4169159,   98.9886322,    14.253562
    287,  -81.9058838,   98.9886322,   28.1183243
    288,  -76.1606674,   98.9886322,   41.2160912
    289,  -68.3379898,   98.9886322,   53.1895943
    290,  -58.6512299,   98.9886322,   63.7122192
    291,  -47.3646164,   98.9886322,   72.4969406
    292,  -34.7860222,   98.9886322,   79.3041382
    293,  -21.2585526,   98.9886322,   83.9481277
    294,  -7.15120602,   98.9886322,   86.3022232
    295,   7.15120602,   98.9886322,   86.3022232
    296,   21.2585526,   98.9886322,   83.9481277
    297,   34.7860222,   98.9886322,   79.3041382
    298,   47.3646164,   98.9886322,   72.4969406
    299,   58.6512299,   98.9886322,   63.7122192
    300,   68.3379898,   98.9886322,   53.1895943
    301,   76.1606674,   98.9886322,   41.2160912
    302,   81.9058838,   98.9886322,   28.1183243
    303,   85.4169159,   98.9886322,    14.253562
    304,   86.5979996,   98.9886322,           0.
    305,   85.4169159,   113.129868,   -14.253562
    306,   81.9058838,   113.129868,  -28.1183243
    307,   76.1606674,   113.129868,  -41.2160912
    308,   68.3379898,   113.129868,  -53.1895943
    309,   58.6512299,   113.129868,  -63.7122192
    310,   47.3646164,   113.129868,  -72.4969406
    311,   34.7860222,   113.129868,  -79.3041382
    312,   21.2585526,   113.129868,  -83.9481277
    313,   7.15120602,   113.129868,  -86.3022232
    314,  -7.15120602,   113.129868,  -86.3022232
    315,  -21.2585526,   113.129868,  -83.9481277
    316,  -34.7860222,   113.129868,  -79.3041382
    317,  -47.3646164,   113.129868,  -72.4969406
    318,  -58.6512299,   113.129868,  -63.7122192
    319,  -68.3379898,   113.129868,  -53.1895943
    320,  -76.1606674,   113.129868,  -41.2160912
    321,  -81.9058838,   113.129868,  -28.1183243
    322,  -85.4169159,   113.129868,   -14.253562
    323,  -86.5979996,   113.129868,           0.
    324,  -85.4169159,   113.129868,    14.253562
    325,  -81.9058838,   113.129868,   28.1183243
    326,  -76.1606674,   113.129868,   41.2160912
    327,  -68.3379898,   113.129868,   53.1895943
    328,  -58.6512299,   113.129868,   63.7122192
    329,  -47.3646164,   113.129868,   72.4969406
    330,  -34.7860222,   113.129868,   79.3041382
    331,  -21.2585526,   113.129868,   83.9481277
    332,  -7.15120602,   113.129868,   86.3022232
    333,   7.15120602,   113.129868,   86.3022232
    334,   21.2585526,   113.129868,   83.9481277
    335,   34.7860222,   113.129868,   79.3041382
    336,   47.3646164,   113.129868,   72.4969406
    337,   58.6512299,   113.129868,   63.7122192
    338,   68.3379898,   113.129868,   53.1895943
    339,   76.1606674,   113.129868,   41.2160912
    340,   81.9058838,   113.129868,   28.1183243
    341,   85.4169159,   113.129868,    14.253562
    342,   86.5979996,   113.129868,           0.
    343,   85.4169159,   127.271103,   -14.253562
    344,   81.9058838,   127.271103,  -28.1183243
    345,   76.1606674,   127.271103,  -41.2160912
    346,   68.3379898,   127.271103,  -53.1895943
    347,   58.6512299,   127.271103,  -63.7122192
    348,   47.3646164,   127.271103,  -72.4969406
    349,   34.7860222,   127.271103,  -79.3041382
    350,   21.2585526,   127.271103,  -83.9481277
    351,   7.15120602,   127.271103,  -86.3022232
    352,  -7.15120602,   127.271103,  -86.3022232
    353,  -21.2585526,   127.271103,  -83.9481277
    354,  -34.7860222,   127.271103,  -79.3041382
    355,  -47.3646164,   127.271103,  -72.4969406
    356,  -58.6512299,   127.271103,  -63.7122192
    357,  -68.3379898,   127.271103,  -53.1895943
    358,  -76.1606674,   127.271103,  -41.2160912
    359,  -81.9058838,   127.271103,  -28.1183243
    360,  -85.4169159,   127.271103,   -14.253562
    361,  -86.5979996,   127.271103,           0.
    362,  -85.4169159,   127.271103,    14.253562
    363,  -81.9058838,   127.271103,   28.1183243
    364,  -76.1606674,   127.271103,   41.2160912
    365,  -68.3379898,   127.271103,   53.1895943
    366,  -58.6512299,   127.271103,   63.7122192
    367,  -47.3646164,   127.271103,   72.4969406
    368,  -34.7860222,   127.271103,   79.3041382
    369,  -21.2585526,   127.271103,   83.9481277
    370,  -7.15120602,   127.271103,   86.3022232
    371,   7.15120602,   127.271103,   86.3022232
    372,   21.2585526,   127.271103,   83.9481277
    373,   34.7860222,   127.271103,   79.3041382
    374,   47.3646164,   127.271103,   72.4969406
    375,   58.6512299,   127.271103,   63.7122192
    376,   68.3379898,   127.271103,   53.1895943
    377,   76.1606674,   127.271103,   41.2160912
    378,   81.9058838,   127.271103,   28.1183243
    379,   85.4169159,   127.271103,    14.253562
    380,   86.5979996,   127.271103,           0.
    381,   85.4169159,   141.412338,   -14.253562
    382,   81.9058838,   141.412338,  -28.1183243
    383,   76.1606674,   141.412338,  -41.2160912
    384,   68.3379898,   141.412338,  -53.1895943
    385,   58.6512299,   141.412338,  -63.7122192
    386,   47.3646164,   141.412338,  -72.4969406
    387,   34.7860222,   141.412338,  -79.3041382
    388,   21.2585526,   141.412338,  -83.9481277
    389,   7.15120602,   141.412338,  -86.3022232
    390,  -7.15120602,   141.412338,  -86.3022232
    391,  -21.2585526,   141.412338,  -83.9481277
    392,  -34.7860222,   141.412338,  -79.3041382
    393,  -47.3646164,   141.412338,  -72.4969406
    394,  -58.6512299,   141.412338,  -63.7122192
    395,  -68.3379898,   141.412338,  -53.1895943
    396,  -76.1606674,   141.412338,  -41.2160912
    397,  -81.9058838,   141.412338,  -28.1183243
    398,  -85.4169159,   141.412338,   -14.253562
    399,  -86.5979996,   141.412338,           0.
    400,  -85.4169159,   141.412338,    14.253562
    401,  -81.9058838,   141.412338,   28.1183243
    402,  -76.1606674,   141.412338,   41.2160912
    403,  -68.3379898,   141.412338,   53.1895943
    404,  -58.6512299,   141.412338,   63.7122192
    405,  -47.3646164,   141.412338,   72.4969406
    406,  -34.7860222,   141.412338,   79.3041382
    407,  -21.2585526,   141.412338,   83.9481277
    408,  -7.15120602,   141.412338,   86.3022232
    409,   7.15120602,   141.412338,   86.3022232
    410,   21.2585526,   141.412338,   83.9481277
    411,   34.7860222,   141.412338,   79.3041382
    412,   47.3646164,   141.412338,   72.4969406
    413,   58.6512299,   141.412338,   63.7122192
    414,   68.3379898,   141.412338,   53.1895943
    415,   76.1606674,   141.412338,   41.2160912
    416,   81.9058838,   141.412338,   28.1183243
    417,   85.4169159,   141.412338,    14.253562
    418,   86.5979996,   141.412338,           0.
    419,   85.4169159,   155.553574,   -14.253562
    420,   81.9058838,   155.553574,  -28.1183243
    421,   76.1606674,   155.553574,  -41.2160912
    422,   68.3379898,   155.553574,  -53.1895943
    423,   58.6512299,   155.553574,  -63.7122192
    424,   47.3646164,   155.553574,  -72.4969406
    425,   34.7860222,   155.553574,  -79.3041382
    426,   21.2585526,   155.553574,  -83.9481277
    427,   7.15120602,   155.553574,  -86.3022232
    428,  -7.15120602,   155.553574,  -86.3022232
    429,  -21.2585526,   155.553574,  -83.9481277
    430,  -34.7860222,   155.553574,  -79.3041382
    431,  -47.3646164,   155.553574,  -72.4969406
    432,  -58.6512299,   155.553574,  -63.7122192
    433,  -68.3379898,   155.553574,  -53.1895943
    434,  -76.1606674,   155.553574,  -41.2160912
    435,  -81.9058838,   155.553574,  -28.1183243
    436,  -85.4169159,   155.553574,   -14.253562
    437,  -86.5979996,   155.553574,           0.
    438,  -85.4169159,   155.553574,    14.253562
    439,  -81.9058838,   155.553574,   28.1183243
    440,  -76.1606674,   155.553574,   41.2160912
    441,  -68.3379898,   155.553574,   53.1895943
    442,  -58.6512299,   155.553574,   63.7122192
    443,  -47.3646164,   155.553574,   72.4969406
    444,  -34.7860222,   155.553574,   79.3041382
    445,  -21.2585526,   155.553574,   83.9481277
    446,  -7.15120602,   155.553574,   86.3022232
    447,   7.15120602,   155.553574,   86.3022232
    448,   21.2585526,   155.553574,   83.9481277
    449,   34.7860222,   155.553574,   79.3041382
    450,   47.3646164,   155.553574,   72.4969406
    451,   58.6512299,   155.553574,   63.7122192
    452,   68.3379898,   155.553574,   53.1895943
    453,   76.1606674,   155.553574,   41.2160912
    454,   81.9058838,   155.553574,   28.1183243
    455,   85.4169159,   155.553574,    14.253562
    456,   86.5979996,   155.553574,           0.
    457,   85.4169159,   169.694794,   -14.253562
    458,   81.9058838,   169.694794,  -28.1183243
    459,   76.1606674,   169.694794,  -41.2160912
    460,   68.3379898,   169.694794,  -53.1895943
    461,   58.6512299,   169.694794,  -63.7122192
    462,   47.3646164,   169.694794,  -72.4969406
    463,   34.7860222,   169.694794,  -79.3041382
    464,   21.2585526,   169.694794,  -83.9481277
    465,   7.15120602,   169.694794,  -86.3022232
    466,  -7.15120602,   169.694794,  -86.3022232
    467,  -21.2585526,   169.694794,  -83.9481277
    468,  -34.7860222,   169.694794,  -79.3041382
    469,  -47.3646164,   169.694794,  -72.4969406
    470,  -58.6512299,   169.694794,  -63.7122192
    471,  -68.3379898,   169.694794,  -53.1895943
    472,  -76.1606674,   169.694794,  -41.2160912
    473,  -81.9058838,   169.694794,  -28.1183243
    474,  -85.4169159,   169.694794,   -14.253562
    475,  -86.5979996,   169.694794,           0.
    476,  -85.4169159,   169.694794,    14.253562
    477,  -81.9058838,   169.694794,   28.1183243
    478,  -76.1606674,   169.694794,   41.2160912
    479,  -68.3379898,   169.694794,   53.1895943
    480,  -58.6512299,   169.694794,   63.7122192
    481,  -47.3646164,   169.694794,   72.4969406
    482,  -34.7860222,   169.694794,   79.3041382
    483,  -21.2585526,   169.694794,   83.9481277
    484,  -7.15120602,   169.694794,   86.3022232
    485,   7.15120602,   169.694794,   86.3022232
    486,   21.2585526,   169.694794,   83.9481277
    487,   34.7860222,   169.694794,   79.3041382
    488,   47.3646164,   169.694794,   72.4969406
    489,   58.6512299,   169.694794,   63.7122192
    490,   68.3379898,   169.694794,   53.1895943
    491,   76.1606674,   169.694794,   41.2160912
    492,   81.9058838,   169.694794,   28.1183243
    493,   85.4169159,   169.694794,    14.253562
    494,   86.5979996,   169.694794,           0.
    495,   85.4169159,   183.836029,   -14.253562
    496,   81.9058838,   183.836029,  -28.1183243
    497,   76.1606674,   183.836029,  -41.2160912
    498,   68.3379898,   183.836029,  -53.1895943
    499,   58.6512299,   183.836029,  -63.7122192
    500,   47.3646164,   183.836029,  -72.4969406
    501,   34.7860222,   183.836029,  -79.3041382
    502,   21.2585526,   183.836029,  -83.9481277
    503,   7.15120602,   183.836029,  -86.3022232
    504,  -7.15120602,   183.836029,  -86.3022232
    505,  -21.2585526,   183.836029,  -83.9481277
    506,  -34.7860222,   183.836029,  -79.3041382
    507,  -47.3646164,   183.836029,  -72.4969406
    508,  -58.6512299,   183.836029,  -63.7122192
    509,  -68.3379898,   183.836029,  -53.1895943
    510,  -76.1606674,   183.836029,  -41.2160912
    511,  -81.9058838,   183.836029,  -28.1183243
    512,  -85.4169159,   183.836029,   -14.253562
    513,  -86.5979996,   183.836029,           0.
    514,  -85.4169159,   183.836029,    14.253562
    515,  -81.9058838,   183.836029,   28.1183243
    516,  -76.1606674,   183.836029,   41.2160912
    517,  -68.3379898,   183.836029,   53.1895943
    518,  -58.6512299,   183.836029,   63.7122192
    519,  -47.3646164,   183.836029,   72.4969406
    520,  -34.7860222,   183.836029,   79.3041382
    521,  -21.2585526,   183.836029,   83.9481277
    522,  -7.15120602,   183.836029,   86.3022232
    523,   7.15120602,   183.836029,   86.3022232
    524,   21.2585526,   183.836029,   83.9481277
    525,   34.7860222,   183.836029,   79.3041382
    526,   47.3646164,   183.836029,   72.4969406
    527,   58.6512299,   183.836029,   63.7122192
    528,   68.3379898,   183.836029,   53.1895943
    529,   76.1606674,   183.836029,   41.2160912
    530,   81.9058838,   183.836029,   28.1183243
    531,   85.4169159,   183.836029,    14.253562
    532,   86.5979996,   183.836029,           0.
    533,   85.4169159,   197.977264,   -14.253562
    534,   81.9058838,   197.977264,  -28.1183243
    535,   76.1606674,   197.977264,  -41.2160912
    536,   68.3379898,   197.977264,  -53.1895943
    537,   58.6512299,   197.977264,  -63.7122192
    538,   47.3646164,   197.977264,  -72.4969406
    539,   34.7860222,   197.977264,  -79.3041382
    540,   21.2585526,   197.977264,  -83.9481277
    541,   7.15120602,   197.977264,  -86.3022232
    542,  -7.15120602,   197.977264,  -86.3022232
    543,  -21.2585526,   197.977264,  -83.9481277
    544,  -34.7860222,   197.977264,  -79.3041382
    545,  -47.3646164,   197.977264,  -72.4969406
    546,  -58.6512299,   197.977264,  -63.7122192
    547,  -68.3379898,   197.977264,  -53.1895943
    548,  -76.1606674,   197.977264,  -41.2160912
    549,  -81.9058838,   197.977264,  -28.1183243
    550,  -85.4169159,   197.977264,   -14.253562
    551,  -86.5979996,   197.977264,           0.
    552,  -85.4169159,   197.977264,    14.253562
    553,  -81.9058838,   197.977264,   28.1183243
    554,  -76.1606674,   197.977264,   41.2160912
    555,  -68.3379898,   197.977264,   53.1895943
    556,  -58.6512299,   197.977264,   63.7122192
    557,  -47.3646164,   197.977264,   72.4969406
    558,  -34.7860222,   197.977264,   79.3041382
    559,  -21.2585526,   197.977264,   83.9481277
    560,  -7.15120602,   197.977264,   86.3022232
    561,   7.15120602,   197.977264,   86.3022232
    562,   21.2585526,   197.977264,   83.9481277
    563,   34.7860222,   197.977264,   79.3041382
    564,   47.3646164,   197.977264,   72.4969406
    565,   58.6512299,   197.977264,   63.7122192
    566,   68.3379898,   197.977264,   53.1895943
    567,   76.1606674,   197.977264,   41.2160912
    568,   81.9058838,   197.977264,   28.1183243
    569,   85.4169159,   197.977264,    14.253562
    570,   86.5979996,   197.977264,           0.
    571,   85.4169159,     212.1185,   -14.253562
    572,   81.9058838,     212.1185,  -28.1183243
    573,   76.1606674,     212.1185,  -41.2160912
    574,   68.3379898,     212.1185,  -53.1895943
    575,   58.6512299,     212.1185,  -63.7122192
    576,   47.3646164,     212.1185,  -72.4969406
    577,   34.7860222,     212.1185,  -79.3041382
    578,   21.2585526,     212.1185,  -83.9481277
    579,   7.15120602,     212.1185,  -86.3022232
    580,  -7.15120602,     212.1185,  -86.3022232
    581,  -21.2585526,     212.1185,  -83.9481277
    582,  -34.7860222,     212.1185,  -79.3041382
    583,  -47.3646164,     212.1185,  -72.4969406
    584,  -58.6512299,     212.1185,  -63.7122192
    585,  -68.3379898,     212.1185,  -53.1895943
    586,  -76.1606674,     212.1185,  -41.2160912
    587,  -81.9058838,     212.1185,  -28.1183243
    588,  -85.4169159,     212.1185,   -14.253562
    589,  -86.5979996,     212.1185,           0.
    590,  -85.4169159,     212.1185,    14.253562
    591,  -81.9058838,     212.1185,   28.1183243
    592,  -76.1606674,     212.1185,   41.2160912
    593,  -68.3379898,     212.1185,   53.1895943
    594,  -58.6512299,     212.1185,   63.7122192
    595,  -47.3646164,     212.1185,   72.4969406
    596,  -34.7860222,     212.1185,   79.3041382
    597,  -21.2585526,     212.1185,   83.9481277
    598,  -7.15120602,     212.1185,   86.3022232
    599,   7.15120602,     212.1185,   86.3022232
    600,   21.2585526,     212.1185,   83.9481277
    601,   34.7860222,     212.1185,   79.3041382
    602,   47.3646164,     212.1185,   72.4969406
    603,   58.6512299,     212.1185,   63.7122192
    604,   68.3379898,     212.1185,   53.1895943
    605,   76.1606674,     212.1185,   41.2160912
    606,   81.9058838,     212.1185,   28.1183243
    607,   85.4169159,     212.1185,    14.253562
    608,   86.5979996,     212.1185,           0.
    609,   85.4169159,   226.259735,   -14.253562
    610,   81.9058838,   226.259735,  -28.1183243
    611,   76.1606674,   226.259735,  -41.2160912
    612,   68.3379898,   226.259735,  -53.1895943
    613,   58.6512299,   226.259735,  -63.7122192
    614,   47.3646164,   226.259735,  -72.4969406
    615,   34.7860222,   226.259735,  -79.3041382
    616,   21.2585526,   226.259735,  -83.9481277
    617,   7.15120602,   226.259735,  -86.3022232
    618,  -7.15120602,   226.259735,  -86.3022232
    619,  -21.2585526,   226.259735,  -83.9481277
    620,  -34.7860222,   226.259735,  -79.3041382
    621,  -47.3646164,   226.259735,  -72.4969406
    622,  -58.6512299,   226.259735,  -63.7122192
    623,  -68.3379898,   226.259735,  -53.1895943
    624,  -76.1606674,   226.259735,  -41.2160912
    625,  -81.9058838,   226.259735,  -28.1183243
    626,  -85.4169159,   226.259735,   -14.253562
    627,  -86.5979996,   226.259735,           0.
    628,  -85.4169159,   226.259735,    14.253562
    629,  -81.9058838,   226.259735,   28.1183243
    630,  -76.1606674,   226.259735,   41.2160912
    631,  -68.3379898,   226.259735,   53.1895943
    632,  -58.6512299,   226.259735,   63.7122192
    633,  -47.3646164,   226.259735,   72.4969406
    634,  -34.7860222,   226.259735,   79.3041382
    635,  -21.2585526,   226.259735,   83.9481277
    636,  -7.15120602,   226.259735,   86.3022232
    637,   7.15120602,   226.259735,   86.3022232
    638,   21.2585526,   226.259735,   83.9481277
    639,   34.7860222,   226.259735,   79.3041382
    640,   47.3646164,   226.259735,   72.4969406
    641,   58.6512299,   226.259735,   63.7122192
    642,   68.3379898,   226.259735,   53.1895943
    643,   76.1606674,   226.259735,   41.2160912
    644,   81.9058838,   226.259735,   28.1183243
    645,   85.4169159,   226.259735,    14.253562
    646,   86.5979996,   226.259735,           0.
    647,   85.4169159,    240.40097,   -14.253562
    648,   81.9058838,    240.40097,  -28.1183243
    649,   76.1606674,    240.40097,  -41.2160912
    650,   68.3379898,    240.40097,  -53.1895943
    651,   58.6512299,    240.40097,  -63.7122192
    652,   47.3646164,    240.40097,  -72.4969406
    653,   34.7860222,    240.40097,  -79.3041382
    654,   21.2585526,    240.40097,  -83.9481277
    655,   7.15120602,    240.40097,  -86.3022232
    656,  -7.15120602,    240.40097,  -86.3022232
    657,  -21.2585526,    240.40097,  -83.9481277
    658,  -34.7860222,    240.40097,  -79.3041382
    659,  -47.3646164,    240.40097,  -72.4969406
    660,  -58.6512299,    240.40097,  -63.7122192
    661,  -68.3379898,    240.40097,  -53.1895943
    662,  -76.1606674,    240.40097,  -41.2160912
    663,  -81.9058838,    240.40097,  -28.1183243
    664,  -85.4169159,    240.40097,   -14.253562
    665,  -86.5979996,    240.40097,           0.
    666,  -85.4169159,    240.40097,    14.253562
    667,  -81.9058838,    240.40097,   28.1183243
    668,  -76.1606674,    240.40097,   41.2160912
    669,  -68.3379898,    240.40097,   53.1895943
    670,  -58.6512299,    240.40097,   63.7122192
    671,  -47.3646164,    240.40097,   72.4969406
    672,  -34.7860222,    240.40097,   79.3041382
    673,  -21.2585526,    240.40097,   83.9481277
    674,  -7.15120602,    240.40097,   86.3022232
    675,   7.15120602,    240.40097,   86.3022232
    676,   21.2585526,    240.40097,   83.9481277
    677,   34.7860222,    240.40097,   79.3041382
    678,   47.3646164,    240.40097,   72.4969406
    679,   58.6512299,    240.40097,   63.7122192
    680,   68.3379898,    240.40097,   53.1895943
    681,   76.1606674,    240.40097,   41.2160912
    682,   81.9058838,    240.40097,   28.1183243
    683,   85.4169159,    240.40097,    14.253562
    684,   86.5979996,    240.40097,           0.
    685,   85.4169159,   254.542206,   -14.253562
    686,   81.9058838,   254.542206,  -28.1183243
    687,   76.1606674,   254.542206,  -41.2160912
    688,   68.3379898,   254.542206,  -53.1895943
    689,   58.6512299,   254.542206,  -63.7122192
    690,   47.3646164,   254.542206,  -72.4969406
    691,   34.7860222,   254.542206,  -79.3041382
    692,   21.2585526,   254.542206,  -83.9481277
    693,   7.15120602,   254.542206,  -86.3022232
    694,  -7.15120602,   254.542206,  -86.3022232
    695,  -21.2585526,   254.542206,  -83.9481277
    696,  -34.7860222,   254.542206,  -79.3041382
    697,  -47.3646164,   254.542206,  -72.4969406
    698,  -58.6512299,   254.542206,  -63.7122192
    699,  -68.3379898,   254.542206,  -53.1895943
    700,  -76.1606674,   254.542206,  -41.2160912
    701,  -81.9058838,   254.542206,  -28.1183243
    702,  -85.4169159,   254.542206,   -14.253562
    703,  -86.5979996,   254.542206,           0.
    704,  -85.4169159,   254.542206,    14.253562
    705,  -81.9058838,   254.542206,   28.1183243
    706,  -76.1606674,   254.542206,   41.2160912
    707,  -68.3379898,   254.542206,   53.1895943
    708,  -58.6512299,   254.542206,   63.7122192
    709,  -47.3646164,   254.542206,   72.4969406
    710,  -34.7860222,   254.542206,   79.3041382
    711,  -21.2585526,   254.542206,   83.9481277
    712,  -7.15120602,   254.542206,   86.3022232
    713,   7.15120602,   254.542206,   86.3022232
    714,   21.2585526,   254.542206,   83.9481277
    715,   34.7860222,   254.542206,   79.3041382
    716,   47.3646164,   254.542206,   72.4969406
    717,   58.6512299,   254.542206,   63.7122192
    718,   68.3379898,   254.542206,   53.1895943
    719,   76.1606674,   254.542206,   41.2160912
    720,   81.9058838,   254.542206,   28.1183243
    721,   85.4169159,   254.542206,    14.253562
    722,   86.5979996,   254.542206,           0.
    723,   85.4169159,   268.683441,   -14.253562
    724,   81.9058838,   268.683441,  -28.1183243
    725,   76.1606674,   268.683441,  -41.2160912
    726,   68.3379898,   268.683441,  -53.1895943
    727,   58.6512299,   268.683441,  -63.7122192
    728,   47.3646164,   268.683441,  -72.4969406
    729,   34.7860222,   268.683441,  -79.3041382
    730,   21.2585526,   268.683441,  -83.9481277
    731,   7.15120602,   268.683441,  -86.3022232
    732,  -7.15120602,   268.683441,  -86.3022232
    733,  -21.2585526,   268.683441,  -83.9481277
    734,  -34.7860222,   268.683441,  -79.3041382
    735,  -47.3646164,   268.683441,  -72.4969406
    736,  -58.6512299,   268.683441,  -63.7122192
    737,  -68.3379898,   268.683441,  -53.1895943
    738,  -76.1606674,   268.683441,  -41.2160912
    739,  -81.9058838,   268.683441,  -28.1183243
    740,  -85.4169159,   268.683441,   -14.253562
    741,  -86.5979996,   268.683441,           0.
    742,  -85.4169159,   268.683441,    14.253562
    743,  -81.9058838,   268.683441,   28.1183243
    744,  -76.1606674,   268.683441,   41.2160912
    745,  -68.3379898,   268.683441,   53.1895943
    746,  -58.6512299,   268.683441,   63.7122192
    747,  -47.3646164,   268.683441,   72.4969406
    748,  -34.7860222,   268.683441,   79.3041382
    749,  -21.2585526,   268.683441,   83.9481277
    750,  -7.15120602,   268.683441,   86.3022232
    751,   7.15120602,   268.683441,   86.3022232
    752,   21.2585526,   268.683441,   83.9481277
    753,   34.7860222,   268.683441,   79.3041382
    754,   47.3646164,   268.683441,   72.4969406
    755,   58.6512299,   268.683441,   63.7122192
    756,   68.3379898,   268.683441,   53.1895943
    757,   76.1606674,   268.683441,   41.2160912
    758,   81.9058838,   268.683441,   28.1183243
    759,   85.4169159,   268.683441,    14.253562
    760,   86.5979996,   268.683441,           0.
    761,   85.4169159,   282.824677,   -14.253562
    762,   81.9058838,   282.824677,  -28.1183243
    763,   76.1606674,   282.824677,  -41.2160912
    764,   68.3379898,   282.824677,  -53.1895943
    765,   58.6512299,   282.824677,  -63.7122192
    766,   47.3646164,   282.824677,  -72.4969406
    767,   34.7860222,   282.824677,  -79.3041382
    768,   21.2585526,   282.824677,  -83.9481277
    769,   7.15120602,   282.824677,  -86.3022232
    770,  -7.15120602,   282.824677,  -86.3022232
    771,  -21.2585526,   282.824677,  -83.9481277
    772,  -34.7860222,   282.824677,  -79.3041382
    773,  -47.3646164,   282.824677,  -72.4969406
    774,  -58.6512299,   282.824677,  -63.7122192
    775,  -68.3379898,   282.824677,  -53.1895943
    776,  -76.1606674,   282.824677,  -41.2160912
    777,  -81.9058838,   282.824677,  -28.1183243
    778,  -85.4169159,   282.824677,   -14.253562
    779,  -86.5979996,   282.824677,           0.
    780,  -85.4169159,   282.824677,    14.253562
    781,  -81.9058838,   282.824677,   28.1183243
    782,  -76.1606674,   282.824677,   41.2160912
    783,  -68.3379898,   282.824677,   53.1895943
    784,  -58.6512299,   282.824677,   63.7122192
    785,  -47.3646164,   282.824677,   72.4969406
    786,  -34.7860222,   282.824677,   79.3041382
    787,  -21.2585526,   282.824677,   83.9481277
    788,  -7.15120602,   282.824677,   86.3022232
    789,   7.15120602,   282.824677,   86.3022232
    790,   21.2585526,   282.824677,   83.9481277
    791,   34.7860222,   282.824677,   79.3041382
    792,   47.3646164,   282.824677,   72.4969406
    793,   58.6512299,   282.824677,   63.7122192
    794,   68.3379898,   282.824677,   53.1895943
    795,   76.1606674,   282.824677,   41.2160912
    796,   81.9058838,   282.824677,   28.1183243
    797,   85.4169159,   282.824677,    14.253562
    798,   86.5979996,   282.824677,           0.
    799,   85.4169159,   296.965912,   -14.253562
    800,   81.9058838,   296.965912,  -28.1183243
    801,   76.1606674,   296.965912,  -41.2160912
    802,   68.3379898,   296.965912,  -53.1895943
    803,   58.6512299,   296.965912,  -63.7122192
    804,   47.3646164,   296.965912,  -72.4969406
    805,   34.7860222,   296.965912,  -79.3041382
    806,   21.2585526,   296.965912,  -83.9481277
    807,   7.15120602,   296.965912,  -86.3022232
    808,  -7.15120602,   296.965912,  -86.3022232
    809,  -21.2585526,   296.965912,  -83.9481277
    810,  -34.7860222,   296.965912,  -79.3041382
    811,  -47.3646164,   296.965912,  -72.4969406
    812,  -58.6512299,   296.965912,  -63.7122192
    813,  -68.3379898,   296.965912,  -53.1895943
    814,  -76.1606674,   296.965912,  -41.2160912
    815,  -81.9058838,   296.965912,  -28.1183243
    816,  -85.4169159,   296.965912,   -14.253562
    817,  -86.5979996,   296.965912,           0.
    818,  -85.4169159,   296.965912,    14.253562
    819,  -81.9058838,   296.965912,   28.1183243
    820,  -76.1606674,   296.965912,   41.2160912
    821,  -68.3379898,   296.965912,   53.1895943
    822,  -58.6512299,   296.965912,   63.7122192
    823,  -47.3646164,   296.965912,   72.4969406
    824,  -34.7860222,   296.965912,   79.3041382
    825,  -21.2585526,   296.965912,   83.9481277
    826,  -7.15120602,   296.965912,   86.3022232
    827,   7.15120602,   296.965912,   86.3022232
    828,   21.2585526,   296.965912,   83.9481277
    829,   34.7860222,   296.965912,   79.3041382
    830,   47.3646164,   296.965912,   72.4969406
    831,   58.6512299,   296.965912,   63.7122192
    832,   68.3379898,   296.965912,   53.1895943
    833,   76.1606674,   296.965912,   41.2160912
    834,   81.9058838,   296.965912,   28.1183243
    835,   85.4169159,   296.965912,    14.253562
    836,   86.5979996,   296.965912,           0.
    837,   85.4169159,   311.107147,   -14.253562
    838,   81.9058838,   311.107147,  -28.1183243
    839,   76.1606674,   311.107147,  -41.2160912
    840,   68.3379898,   311.107147,  -53.1895943
    841,   58.6512299,   311.107147,  -63.7122192
    842,   47.3646164,   311.107147,  -72.4969406
    843,   34.7860222,   311.107147,  -79.3041382
    844,   21.2585526,   311.107147,  -83.9481277
    845,   7.15120602,   311.107147,  -86.3022232
    846,  -7.15120602,   311.107147,  -86.3022232
    847,  -21.2585526,   311.107147,  -83.9481277
    848,  -34.7860222,   311.107147,  -79.3041382
    849,  -47.3646164,   311.107147,  -72.4969406
    850,  -58.6512299,   311.107147,  -63.7122192
    851,  -68.3379898,   311.107147,  -53.1895943
    852,  -76.1606674,   311.107147,  -41.2160912
    853,  -81.9058838,   311.107147,  -28.1183243
    854,  -85.4169159,   311.107147,   -14.253562
    855,  -86.5979996,   311.107147,           0.
    856,  -85.4169159,   311.107147,    14.253562
    857,  -81.9058838,   311.107147,   28.1183243
    858,  -76.1606674,   311.107147,   41.2160912
    859,  -68.3379898,   311.107147,   53.1895943
    860,  -58.6512299,   311.107147,   63.7122192
    861,  -47.3646164,   311.107147,   72.4969406
    862,  -34.7860222,   311.107147,   79.3041382
    863,  -21.2585526,   311.107147,   83.9481277
    864,  -7.15120602,   311.107147,   86.3022232
    865,   7.15120602,   311.107147,   86.3022232
    866,   21.2585526,   311.107147,   83.9481277
    867,   34.7860222,   311.107147,   79.3041382
    868,   47.3646164,   311.107147,   72.4969406
    869,   58.6512299,   311.107147,   63.7122192
    870,   68.3379898,   311.107147,   53.1895943
    871,   76.1606674,   311.107147,   41.2160912
    872,   81.9058838,   311.107147,   28.1183243
    873,   85.4169159,   311.107147,    14.253562
    874,   86.5979996,   311.107147,           0.
    875,   85.4169159,   325.248352,   -14.253562
    876,   81.9058838,   325.248352,  -28.1183243
    877,   76.1606674,   325.248352,  -41.2160912
    878,   68.3379898,   325.248352,  -53.1895943
    879,   58.6512299,   325.248352,  -63.7122192
    880,   47.3646164,   325.248352,  -72.4969406
    881,   34.7860222,   325.248352,  -79.3041382
    882,   21.2585526,   325.248352,  -83.9481277
    883,   7.15120602,   325.248352,  -86.3022232
    884,  -7.15120602,   325.248352,  -86.3022232
    885,  -21.2585526,   325.248352,  -83.9481277
    886,  -34.7860222,   325.248352,  -79.3041382
    887,  -47.3646164,   325.248352,  -72.4969406
    888,  -58.6512299,   325.248352,  -63.7122192
    889,  -68.3379898,   325.248352,  -53.1895943
    890,  -76.1606674,   325.248352,  -41.2160912
    891,  -81.9058838,   325.248352,  -28.1183243
    892,  -85.4169159,   325.248352,   -14.253562
    893,  -86.5979996,   325.248352,           0.
    894,  -85.4169159,   325.248352,    14.253562
    895,  -81.9058838,   325.248352,   28.1183243
    896,  -76.1606674,   325.248352,   41.2160912
    897,  -68.3379898,   325.248352,   53.1895943
    898,  -58.6512299,   325.248352,   63.7122192
    899,  -47.3646164,   325.248352,   72.4969406
    900,  -34.7860222,   325.248352,   79.3041382
    901,  -21.2585526,   325.248352,   83.9481277
    902,  -7.15120602,   325.248352,   86.3022232
    903,   7.15120602,   325.248352,   86.3022232
    904,   21.2585526,   325.248352,   83.9481277
    905,   34.7860222,   325.248352,   79.3041382
    906,   47.3646164,   325.248352,   72.4969406
    907,   58.6512299,   325.248352,   63.7122192
    908,   68.3379898,   325.248352,   53.1895943
    909,   76.1606674,   325.248352,   41.2160912
    910,   81.9058838,   325.248352,   28.1183243
    911,   85.4169159,   325.248352,    14.253562
    912,   86.5979996,   325.248352,           0.
    913,   85.4169159,   339.389587,   -14.253562
    914,   81.9058838,   339.389587,  -28.1183243
    915,   76.1606674,   339.389587,  -41.2160912
    916,   68.3379898,   339.389587,  -53.1895943
    917,   58.6512299,   339.389587,  -63.7122192
    918,   47.3646164,   339.389587,  -72.4969406
    919,   34.7860222,   339.389587,  -79.3041382
    920,   21.2585526,   339.389587,  -83.9481277
    921,   7.15120602,   339.389587,  -86.3022232
    922,  -7.15120602,   339.389587,  -86.3022232
    923,  -21.2585526,   339.389587,  -83.9481277
    924,  -34.7860222,   339.389587,  -79.3041382
    925,  -47.3646164,   339.389587,  -72.4969406
    926,  -58.6512299,   339.389587,  -63.7122192
    927,  -68.3379898,   339.389587,  -53.1895943
    928,  -76.1606674,   339.389587,  -41.2160912
    929,  -81.9058838,   339.389587,  -28.1183243
    930,  -85.4169159,   339.389587,   -14.253562
    931,  -86.5979996,   339.389587,           0.
    932,  -85.4169159,   339.389587,    14.253562
    933,  -81.9058838,   339.389587,   28.1183243
    934,  -76.1606674,   339.389587,   41.2160912
    935,  -68.3379898,   339.389587,   53.1895943
    936,  -58.6512299,   339.389587,   63.7122192
    937,  -47.3646164,   339.389587,   72.4969406
    938,  -34.7860222,   339.389587,   79.3041382
    939,  -21.2585526,   339.389587,   83.9481277
    940,  -7.15120602,   339.389587,   86.3022232
    941,   7.15120602,   339.389587,   86.3022232
    942,   21.2585526,   339.389587,   83.9481277
    943,   34.7860222,   339.389587,   79.3041382
    944,   47.3646164,   339.389587,   72.4969406
    945,   58.6512299,   339.389587,   63.7122192
    946,   68.3379898,   339.389587,   53.1895943
    947,   76.1606674,   339.389587,   41.2160912
    948,   81.9058838,   339.389587,   28.1183243
    949,   85.4169159,   339.389587,    14.253562
    950,   86.5979996,   339.389587,           0.
    951,   85.4169159,   353.530823,   -14.253562
    952,   81.9058838,   353.530823,  -28.1183243
    953,   76.1606674,   353.530823,  -41.2160912
    954,   68.3379898,   353.530823,  -53.1895943
    955,   58.6512299,   353.530823,  -63.7122192
    956,   47.3646164,   353.530823,  -72.4969406
    957,   34.7860222,   353.530823,  -79.3041382
    958,   21.2585526,   353.530823,  -83.9481277
    959,   7.15120602,   353.530823,  -86.3022232
    960,  -7.15120602,   353.530823,  -86.3022232
    961,  -21.2585526,   353.530823,  -83.9481277
    962,  -34.7860222,   353.530823,  -79.3041382
    963,  -47.3646164,   353.530823,  -72.4969406
    964,  -58.6512299,   353.530823,  -63.7122192
    965,  -68.3379898,   353.530823,  -53.1895943
    966,  -76.1606674,   353.530823,  -41.2160912
    967,  -81.9058838,   353.530823,  -28.1183243
    968,  -85.4169159,   353.530823,   -14.253562
    969,  -86.5979996,   353.530823,           0.
    970,  -85.4169159,   353.530823,    14.253562
    971,  -81.9058838,   353.530823,   28.1183243
    972,  -76.1606674,   353.530823,   41.2160912
    973,  -68.3379898,   353.530823,   53.1895943
    974,  -58.6512299,   353.530823,   63.7122192
    975,  -47.3646164,   353.530823,   72.4969406
    976,  -34.7860222,   353.530823,   79.3041382
    977,  -21.2585526,   353.530823,   83.9481277
    978,  -7.15120602,   353.530823,   86.3022232
    979,   7.15120602,   353.530823,   86.3022232
    980,   21.2585526,   353.530823,   83.9481277
    981,   34.7860222,   353.530823,   79.3041382
    982,   47.3646164,   353.530823,   72.4969406
    983,   58.6512299,   353.530823,   63.7122192
    984,   68.3379898,   353.530823,   53.1895943
    985,   76.1606674,   353.530823,   41.2160912
    986,   81.9058838,   353.530823,   28.1183243
    987,   85.4169159,   353.530823,    14.253562
    988,   86.5979996,   353.530823,           0.
    989,   85.4169159,   367.672058,   -14.253562
    990,   81.9058838,   367.672058,  -28.1183243
    991,   76.1606674,   367.672058,  -41.2160912
    992,   68.3379898,   367.672058,  -53.1895943
    993,   58.6512299,   367.672058,  -63.7122192
    994,   47.3646164,   367.672058,  -72.4969406
    995,   34.7860222,   367.672058,  -79.3041382
    996,   21.2585526,   367.672058,  -83.9481277
    997,   7.15120602,   367.672058,  -86.3022232
    998,  -7.15120602,   367.672058,  -86.3022232
    999,  -21.2585526,   367.672058,  -83.9481277
   1000,  -34.7860222,   367.672058,  -79.3041382
   1001,  -47.3646164,   367.672058,  -72.4969406
   1002,  -58.6512299,   367.672058,  -63.7122192
   1003,  -68.3379898,   367.672058,  -53.1895943
   1004,  -76.1606674,   367.672058,  -41.2160912
   1005,  -81.9058838,   367.672058,  -28.1183243
   1006,  -85.4169159,   367.672058,   -14.253562
   1007,  -86.5979996,   367.672058,           0.
   1008,  -85.4169159,   367.672058,    14.253562
   1009,  -81.9058838,   367.672058,   28.1183243
   1010,  -76.1606674,   367.672058,   41.2160912
   1011,  -68.3379898,   367.672058,   53.1895943
   1012,  -58.6512299,   367.672058,   63.7122192
   1013,  -47.3646164,   367.672058,   72.4969406
   1014,  -34.7860222,   367.672058,   79.3041382
   1015,  -21.2585526,   367.672058,   83.9481277
   1016,  -7.15120602,   367.672058,   86.3022232
   1017,   7.15120602,   367.672058,   86.3022232
   1018,   21.2585526,   367.672058,   83.9481277
   1019,   34.7860222,   367.672058,   79.3041382
   1020,   47.3646164,   367.672058,   72.4969406
   1021,   58.6512299,   367.672058,   63.7122192
   1022,   68.3379898,   367.672058,   53.1895943
   1023,   76.1606674,   367.672058,   41.2160912
   1024,   81.9058838,   367.672058,   28.1183243
   1025,   85.4169159,   367.672058,    14.253562
   1026,   86.5979996,   367.672058,           0.
   1027,   85.4169159,   381.813293,   -14.253562
   1028,   81.9058838,   381.813293,  -28.1183243
   1029,   76.1606674,   381.813293,  -41.2160912
   1030,   68.3379898,   381.813293,  -53.1895943
   1031,   58.6512299,   381.813293,  -63.7122192
   1032,   47.3646164,   381.813293,  -72.4969406
   1033,   34.7860222,   381.813293,  -79.3041382
   1034,   21.2585526,   381.813293,  -83.9481277
   1035,   7.15120602,   381.813293,  -86.3022232
   1036,  -7.15120602,   381.813293,  -86.3022232
   1037,  -21.2585526,   381.813293,  -83.9481277
   1038,  -34.7860222,   381.813293,  -79.3041382
   1039,  -47.3646164,   381.813293,  -72.4969406
   1040,  -58.6512299,   381.813293,  -63.7122192
   1041,  -68.3379898,   381.813293,  -53.1895943
   1042,  -76.1606674,   381.813293,  -41.2160912
   1043,  -81.9058838,   381.813293,  -28.1183243
   1044,  -85.4169159,   381.813293,   -14.253562
   1045,  -86.5979996,   381.813293,           0.
   1046,  -85.4169159,   381.813293,    14.253562
   1047,  -81.9058838,   381.813293,   28.1183243
   1048,  -76.1606674,   381.813293,   41.2160912
   1049,  -68.3379898,   381.813293,   53.1895943
   1050,  -58.6512299,   381.813293,   63.7122192
   1051,  -47.3646164,   381.813293,   72.4969406
   1052,  -34.7860222,   381.813293,   79.3041382
   1053,  -21.2585526,   381.813293,   83.9481277
   1054,  -7.15120602,   381.813293,   86.3022232
   1055,   7.15120602,   381.813293,   86.3022232
   1056,   21.2585526,   381.813293,   83.9481277
   1057,   34.7860222,   381.813293,   79.3041382
   1058,   47.3646164,   381.813293,   72.4969406
   1059,   58.6512299,   381.813293,   63.7122192
   1060,   68.3379898,   381.813293,   53.1895943
   1061,   76.1606674,   381.813293,   41.2160912
   1062,   81.9058838,   381.813293,   28.1183243
   1063,   85.4169159,   381.813293,    14.253562
   1064,   86.5979996,   381.813293,           0.
   1065,   85.4169159,   395.954529,   -14.253562
   1066,   81.9058838,   395.954529,  -28.1183243
   1067,   76.1606674,   395.954529,  -41.2160912
   1068,   68.3379898,   395.954529,  -53.1895943
   1069,   58.6512299,   395.954529,  -63.7122192
   1070,   47.3646164,   395.954529,  -72.4969406
   1071,   34.7860222,   395.954529,  -79.3041382
   1072,   21.2585526,   395.954529,  -83.9481277
   1073,   7.15120602,   395.954529,  -86.3022232
   1074,  -7.15120602,   395.954529,  -86.3022232
   1075,  -21.2585526,   395.954529,  -83.9481277
   1076,  -34.7860222,   395.954529,  -79.3041382
   1077,  -47.3646164,   395.954529,  -72.4969406
   1078,  -58.6512299,   395.954529,  -63.7122192
   1079,  -68.3379898,   395.954529,  -53.1895943
   1080,  -76.1606674,   395.954529,  -41.2160912
   1081,  -81.9058838,   395.954529,  -28.1183243
   1082,  -85.4169159,   395.954529,   -14.253562
   1083,  -86.5979996,   395.954529,           0.
   1084,  -85.4169159,   395.954529,    14.253562
   1085,  -81.9058838,   395.954529,   28.1183243
   1086,  -76.1606674,   395.954529,   41.2160912
   1087,  -68.3379898,   395.954529,   53.1895943
   1088,  -58.6512299,   395.954529,   63.7122192
   1089,  -47.3646164,   395.954529,   72.4969406
   1090,  -34.7860222,   395.954529,   79.3041382
   1091,  -21.2585526,   395.954529,   83.9481277
   1092,  -7.15120602,   395.954529,   86.3022232
   1093,   7.15120602,   395.954529,   86.3022232
   1094,   21.2585526,   395.954529,   83.9481277
   1095,   34.7860222,   395.954529,   79.3041382
   1096,   47.3646164,   395.954529,   72.4969406
   1097,   58.6512299,   395.954529,   63.7122192
   1098,   68.3379898,   395.954529,   53.1895943
   1099,   76.1606674,   395.954529,   41.2160912
   1100,   81.9058838,   395.954529,   28.1183243
   1101,   85.4169159,   395.954529,    14.253562
   1102,   86.5979996,   395.954529,           0.
   1103,   85.4169159,   410.095764,   -14.253562
   1104,   81.9058838,   410.095764,  -28.1183243
   1105,   76.1606674,   410.095764,  -41.2160912
   1106,   68.3379898,   410.095764,  -53.1895943
   1107,   58.6512299,   410.095764,  -63.7122192
   1108,   47.3646164,   410.095764,  -72.4969406
   1109,   34.7860222,   410.095764,  -79.3041382
   1110,   21.2585526,   410.095764,  -83.9481277
   1111,   7.15120602,   410.095764,  -86.3022232
   1112,  -7.15120602,   410.095764,  -86.3022232
   1113,  -21.2585526,   410.095764,  -83.9481277
   1114,  -34.7860222,   410.095764,  -79.3041382
   1115,  -47.3646164,   410.095764,  -72.4969406
   1116,  -58.6512299,   410.095764,  -63.7122192
   1117,  -68.3379898,   410.095764,  -53.1895943
   1118,  -76.1606674,   410.095764,  -41.2160912
   1119,  -81.9058838,   410.095764,  -28.1183243
   1120,  -85.4169159,   410.095764,   -14.253562
   1121,  -86.5979996,   410.095764,           0.
   1122,  -85.4169159,   410.095764,    14.253562
   1123,  -81.9058838,   410.095764,   28.1183243
   1124,  -76.1606674,   410.095764,   41.2160912
   1125,  -68.3379898,   410.095764,   53.1895943
   1126,  -58.6512299,   410.095764,   63.7122192
   1127,  -47.3646164,   410.095764,   72.4969406
   1128,  -34.7860222,   410.095764,   79.3041382
   1129,  -21.2585526,   410.095764,   83.9481277
   1130,  -7.15120602,   410.095764,   86.3022232
   1131,   7.15120602,   410.095764,   86.3022232
   1132,   21.2585526,   410.095764,   83.9481277
   1133,   34.7860222,   410.095764,   79.3041382
   1134,   47.3646164,   410.095764,   72.4969406
   1135,   58.6512299,   410.095764,   63.7122192
   1136,   68.3379898,   410.095764,   53.1895943
   1137,   76.1606674,   410.095764,   41.2160912
   1138,   81.9058838,   410.095764,   28.1183243
   1139,   85.4169159,   410.095764,    14.253562
   1140,   86.5979996,   410.095764,           0.
   1141,   85.4169159,      424.237,   -14.253562
   1142,   81.9058838,      424.237,  -28.1183243
   1143,   76.1606674,      424.237,  -41.2160912
   1144,   68.3379898,      424.237,  -53.1895943
   1145,   58.6512299,      424.237,  -63.7122192
   1146,   47.3646164,      424.237,  -72.4969406
   1147,   34.7860222,      424.237,  -79.3041382
   1148,   21.2585526,      424.237,  -83.9481277
   1149,   7.15120602,      424.237,  -86.3022232
   1150,  -7.15120602,      424.237,  -86.3022232
   1151,  -21.2585526,      424.237,  -83.9481277
   1152,  -34.7860222,      424.237,  -79.3041382
   1153,  -47.3646164,      424.237,  -72.4969406
   1154,  -58.6512299,      424.237,  -63.7122192
   1155,  -68.3379898,      424.237,  -53.1895943
   1156,  -76.1606674,      424.237,  -41.2160912
   1157,  -81.9058838,      424.237,  -28.1183243
   1158,  -85.4169159,      424.237,   -14.253562
   1159,  -86.5979996,      424.237,           0.
   1160,  -85.4169159,      424.237,    14.253562
   1161,  -81.9058838,      424.237,   28.1183243
   1162,  -76.1606674,      424.237,   41.2160912
   1163,  -68.3379898,      424.237,   53.1895943
   1164,  -58.6512299,      424.237,   63.7122192
   1165,  -47.3646164,      424.237,   72.4969406
   1166,  -34.7860222,      424.237,   79.3041382
   1167,  -21.2585526,      424.237,   83.9481277
   1168,  -7.15120602,      424.237,   86.3022232
   1169,   7.15120602,      424.237,   86.3022232
   1170,   21.2585526,      424.237,   83.9481277
   1171,   34.7860222,      424.237,   79.3041382
   1172,   47.3646164,      424.237,   72.4969406
   1173,   58.6512299,      424.237,   63.7122192
   1174,   68.3379898,      424.237,   53.1895943
   1175,   76.1606674,      424.237,   41.2160912
   1176,   81.9058838,      424.237,   28.1183243
   1177,   85.4169159,      424.237,    14.253562
   1178,   86.5979996,      424.237,           0.
*Element, type=S4R
   1,   38,    1,   39,   76
   2,    1,    2,   40,   39
   3,    2,    3,   41,   40
   4,    3,    4,   42,   41
   5,    4,    5,   43,   42
   6,    5,    6,   44,   43
   7,    6,    7,   45,   44
   8,    7,    8,   46,   45
   9,    8,    9,   47,   46
  10,    9,   10,   48,   47
  11,   10,   11,   49,   48
  12,   11,   12,   50,   49
  13,   12,   13,   51,   50
  14,   13,   14,   52,   51
  15,   14,   15,   53,   52
  16,   15,   16,   54,   53
  17,   16,   17,   55,   54
  18,   17,   18,   56,   55
  19,   18,   19,   57,   56
  20,   19,   20,   58,   57
  21,   20,   21,   59,   58
  22,   21,   22,   60,   59
  23,   22,   23,   61,   60
  24,   23,   24,   62,   61
  25,   24,   25,   63,   62
  26,   25,   26,   64,   63
  27,   26,   27,   65,   64
  28,   27,   28,   66,   65
  29,   28,   29,   67,   66
  30,   29,   30,   68,   67
  31,   30,   31,   69,   68
  32,   31,   32,   70,   69
  33,   32,   33,   71,   70
  34,   33,   34,   72,   71
  35,   34,   35,   73,   72
  36,   35,   36,   74,   73
  37,   36,   37,   75,   74
  38,   37,   38,   76,   75
  39,   76,   39,   77,  114
  40,   39,   40,   78,   77
  41,   40,   41,   79,   78
  42,   41,   42,   80,   79
  43,   42,   43,   81,   80
  44,   43,   44,   82,   81
  45,   44,   45,   83,   82
  46,   45,   46,   84,   83
  47,   46,   47,   85,   84
  48,   47,   48,   86,   85
  49,   48,   49,   87,   86
  50,   49,   50,   88,   87
  51,   50,   51,   89,   88
  52,   51,   52,   90,   89
  53,   52,   53,   91,   90
  54,   53,   54,   92,   91
  55,   54,   55,   93,   92
  56,   55,   56,   94,   93
  57,   56,   57,   95,   94
  58,   57,   58,   96,   95
  59,   58,   59,   97,   96
  60,   59,   60,   98,   97
  61,   60,   61,   99,   98
  62,   61,   62,  100,   99
  63,   62,   63,  101,  100
  64,   63,   64,  102,  101
  65,   64,   65,  103,  102
  66,   65,   66,  104,  103
  67,   66,   67,  105,  104
  68,   67,   68,  106,  105
  69,   68,   69,  107,  106
  70,   69,   70,  108,  107
  71,   70,   71,  109,  108
  72,   71,   72,  110,  109
  73,   72,   73,  111,  110
  74,   73,   74,  112,  111
  75,   74,   75,  113,  112
  76,   75,   76,  114,  113
  77,  114,   77,  115,  152
  78,   77,   78,  116,  115
  79,   78,   79,  117,  116
  80,   79,   80,  118,  117
  81,   80,   81,  119,  118
  82,   81,   82,  120,  119
  83,   82,   83,  121,  120
  84,   83,   84,  122,  121
  85,   84,   85,  123,  122
  86,   85,   86,  124,  123
  87,   86,   87,  125,  124
  88,   87,   88,  126,  125
  89,   88,   89,  127,  126
  90,   89,   90,  128,  127
  91,   90,   91,  129,  128
  92,   91,   92,  130,  129
  93,   92,   93,  131,  130
  94,   93,   94,  132,  131
  95,   94,   95,  133,  132
  96,   95,   96,  134,  133
  97,   96,   97,  135,  134
  98,   97,   98,  136,  135
  99,   98,   99,  137,  136
 100,   99,  100,  138,  137
 101,  100,  101,  139,  138
 102,  101,  102,  140,  139
 103,  102,  103,  141,  140
 104,  103,  104,  142,  141
 105,  104,  105,  143,  142
 106,  105,  106,  144,  143
 107,  106,  107,  145,  144
 108,  107,  108,  146,  145
 109,  108,  109,  147,  146
 110,  109,  110,  148,  147
 111,  110,  111,  149,  148
 112,  111,  112,  150,  149
 113,  112,  113,  151,  150
 114,  113,  114,  152,  151
 115,  152,  115,  153,  190
 116,  115,  116,  154,  153
 117,  116,  117,  155,  154
 118,  117,  118,  156,  155
 119,  118,  119,  157,  156
 120,  119,  120,  158,  157
 121,  120,  121,  159,  158
 122,  121,  122,  160,  159
 123,  122,  123,  161,  160
 124,  123,  124,  162,  161
 125,  124,  125,  163,  162
 126,  125,  126,  164,  163
 127,  126,  127,  165,  164
 128,  127,  128,  166,  165
 129,  128,  129,  167,  166
 130,  129,  130,  168,  167
 131,  130,  131,  169,  168
 132,  131,  132,  170,  169
 133,  132,  133,  171,  170
 134,  133,  134,  172,  171
 135,  134,  135,  173,  172
 136,  135,  136,  174,  173
 137,  136,  137,  175,  174
 138,  137,  138,  176,  175
 139,  138,  139,  177,  176
 140,  139,  140,  178,  177
 141,  140,  141,  179,  178
 142,  141,  142,  180,  179
 143,  142,  143,  181,  180
 144,  143,  144,  182,  181
 145,  144,  145,  183,  182
 146,  145,  146,  184,  183
 147,  146,  147,  185,  184
 148,  147,  148,  186,  185
 149,  148,  149,  187,  186
 150,  149,  150,  188,  187
 151,  150,  151,  189,  188
 152,  151,  152,  190,  189
 153,  190,  153,  191,  228
 154,  153,  154,  192,  191
 155,  154,  155,  193,  192
 156,  155,  156,  194,  193
 157,  156,  157,  195,  194
 158,  157,  158,  196,  195
 159,  158,  159,  197,  196
 160,  159,  160,  198,  197
 161,  160,  161,  199,  198
 162,  161,  162,  200,  199
 163,  162,  163,  201,  200
 164,  163,  164,  202,  201
 165,  164,  165,  203,  202
 166,  165,  166,  204,  203
 167,  166,  167,  205,  204
 168,  167,  168,  206,  205
 169,  168,  169,  207,  206
 170,  169,  170,  208,  207
 171,  170,  171,  209,  208
 172,  171,  172,  210,  209
 173,  172,  173,  211,  210
 174,  173,  174,  212,  211
 175,  174,  175,  213,  212
 176,  175,  176,  214,  213
 177,  176,  177,  215,  214
 178,  177,  178,  216,  215
 179,  178,  179,  217,  216
 180,  179,  180,  218,  217
 181,  180,  181,  219,  218
 182,  181,  182,  220,  219
 183,  182,  183,  221,  220
 184,  183,  184,  222,  221
 185,  184,  185,  223,  222
 186,  185,  186,  224,  223
 187,  186,  187,  225,  224
 188,  187,  188,  226,  225
 189,  188,  189,  227,  226
 190,  189,  190,  228,  227
 191,  228,  191,  229,  266
 192,  191,  192,  230,  229
 193,  192,  193,  231,  230
 194,  193,  194,  232,  231
 195,  194,  195,  233,  232
 196,  195,  196,  234,  233
 197,  196,  197,  235,  234
 198,  197,  198,  236,  235
 199,  198,  199,  237,  236
 200,  199,  200,  238,  237
 201,  200,  201,  239,  238
 202,  201,  202,  240,  239
 203,  202,  203,  241,  240
 204,  203,  204,  242,  241
 205,  204,  205,  243,  242
 206,  205,  206,  244,  243
 207,  206,  207,  245,  244
 208,  207,  208,  246,  245
 209,  208,  209,  247,  246
 210,  209,  210,  248,  247
 211,  210,  211,  249,  248
 212,  211,  212,  250,  249
 213,  212,  213,  251,  250
 214,  213,  214,  252,  251
 215,  214,  215,  253,  252
 216,  215,  216,  254,  253
 217,  216,  217,  255,  254
 218,  217,  218,  256,  255
 219,  218,  219,  257,  256
 220,  219,  220,  258,  257
 221,  220,  221,  259,  258
 222,  221,  222,  260,  259
 223,  222,  223,  261,  260
 224,  223,  224,  262,  261
 225,  224,  225,  263,  262
 226,  225,  226,  264,  263
 227,  226,  227,  265,  264
 228,  227,  228,  266,  265
 229,  266,  229,  267,  304
 230,  229,  230,  268,  267
 231,  230,  231,  269,  268
 232,  231,  232,  270,  269
 233,  232,  233,  271,  270
 234,  233,  234,  272,  271
 235,  234,  235,  273,  272
 236,  235,  236,  274,  273
 237,  236,  237,  275,  274
 238,  237,  238,  276,  275
 239,  238,  239,  277,  276
 240,  239,  240,  278,  277
 241,  240,  241,  279,  278
 242,  241,  242,  280,  279
 243,  242,  243,  281,  280
 244,  243,  244,  282,  281
 245,  244,  245,  283,  282
 246,  245,  246,  284,  283
 247,  246,  247,  285,  284
 248,  247,  248,  286,  285
 249,  248,  249,  287,  286
 250,  249,  250,  288,  287
 251,  250,  251,  289,  288
 252,  251,  252,  290,  289
 253,  252,  253,  291,  290
 254,  253,  254,  292,  291
 255,  254,  255,  293,  292
 256,  255,  256,  294,  293
 257,  256,  257,  295,  294
 258,  257,  258,  296,  295
 259,  258,  259,  297,  296
 260,  259,  260,  298,  297
 261,  260,  261,  299,  298
 262,  261,  262,  300,  299
 263,  262,  263,  301,  300
 264,  263,  264,  302,  301
 265,  264,  265,  303,  302
 266,  265,  266,  304,  303
 267,  304,  267,  305,  342
 268,  267,  268,  306,  305
 269,  268,  269,  307,  306
 270,  269,  270,  308,  307
 271,  270,  271,  309,  308
 272,  271,  272,  310,  309
 273,  272,  273,  311,  310
 274,  273,  274,  312,  311
 275,  274,  275,  313,  312
 276,  275,  276,  314,  313
 277,  276,  277,  315,  314
 278,  277,  278,  316,  315
 279,  278,  279,  317,  316
 280,  279,  280,  318,  317
 281,  280,  281,  319,  318
 282,  281,  282,  320,  319
 283,  282,  283,  321,  320
 284,  283,  284,  322,  321
 285,  284,  285,  323,  322
 286,  285,  286,  324,  323
 287,  286,  287,  325,  324
 288,  287,  288,  326,  325
 289,  288,  289,  327,  326
 290,  289,  290,  328,  327
 291,  290,  291,  329,  328
 292,  291,  292,  330,  329
 293,  292,  293,  331,  330
 294,  293,  294,  332,  331
 295,  294,  295,  333,  332
 296,  295,  296,  334,  333
 297,  296,  297,  335,  334
 298,  297,  298,  336,  335
 299,  298,  299,  337,  336
 300,  299,  300,  338,  337
 301,  300,  301,  339,  338
 302,  301,  302,  340,  339
 303,  302,  303,  341,  340
 304,  303,  304,  342,  341
 305,  342,  305,  343,  380
 306,  305,  306,  344,  343
 307,  306,  307,  345,  344
 308,  307,  308,  346,  345
 309,  308,  309,  347,  346
 310,  309,  310,  348,  347
 311,  310,  311,  349,  348
 312,  311,  312,  350,  349
 313,  312,  313,  351,  350
 314,  313,  314,  352,  351
 315,  314,  315,  353,  352
 316,  315,  316,  354,  353
 317,  316,  317,  355,  354
 318,  317,  318,  356,  355
 319,  318,  319,  357,  356
 320,  319,  320,  358,  357
 321,  320,  321,  359,  358
 322,  321,  322,  360,  359
 323,  322,  323,  361,  360
 324,  323,  324,  362,  361
 325,  324,  325,  363,  362
 326,  325,  326,  364,  363
 327,  326,  327,  365,  364
 328,  327,  328,  366,  365
 329,  328,  329,  367,  366
 330,  329,  330,  368,  367
 331,  330,  331,  369,  368
 332,  331,  332,  370,  369
 333,  332,  333,  371,  370
 334,  333,  334,  372,  371
 335,  334,  335,  373,  372
 336,  335,  336,  374,  373
 337,  336,  337,  375,  374
 338,  337,  338,  376,  375
 339,  338,  339,  377,  376
 340,  339,  340,  378,  377
 341,  340,  341,  379,  378
 342,  341,  342,  380,  379
 343,  380,  343,  381,  418
 344,  343,  344,  382,  381
 345,  344,  345,  383,  382
 346,  345,  346,  384,  383
 347,  346,  347,  385,  384
 348,  347,  348,  386,  385
 349,  348,  349,  387,  386
 350,  349,  350,  388,  387
 351,  350,  351,  389,  388
 352,  351,  352,  390,  389
 353,  352,  353,  391,  390
 354,  353,  354,  392,  391
 355,  354,  355,  393,  392
 356,  355,  356,  394,  393
 357,  356,  357,  395,  394
 358,  357,  358,  396,  395
 359,  358,  359,  397,  396
 360,  359,  360,  398,  397
 361,  360,  361,  399,  398
 362,  361,  362,  400,  399
 363,  362,  363,  401,  400
 364,  363,  364,  402,  401
 365,  364,  365,  403,  402
 366,  365,  366,  404,  403
 367,  366,  367,  405,  404
 368,  367,  368,  406,  405
 369,  368,  369,  407,  406
 370,  369,  370,  408,  407
 371,  370,  371,  409,  408
 372,  371,  372,  410,  409
 373,  372,  373,  411,  410
 374,  373,  374,  412,  411
 375,  374,  375,  413,  412
 376,  375,  376,  414,  413
 377,  376,  377,  415,  414
 378,  377,  378,  416,  415
 379,  378,  379,  417,  416
 380,  379,  380,  418,  417
 381,  418,  381,  419,  456
 382,  381,  382,  420,  419
 383,  382,  383,  421,  420
 384,  383,  384,  422,  421
 385,  384,  385,  423,  422
 386,  385,  386,  424,  423
 387,  386,  387,  425,  424
 388,  387,  388,  426,  425
 389,  388,  389,  427,  426
 390,  389,  390,  428,  427
 391,  390,  391,  429,  428
 392,  391,  392,  430,  429
 393,  392,  393,  431,  430
 394,  393,  394,  432,  431
 395,  394,  395,  433,  432
 396,  395,  396,  434,  433
 397,  396,  397,  435,  434
 398,  397,  398,  436,  435
 399,  398,  399,  437,  436
 400,  399,  400,  438,  437
 401,  400,  401,  439,  438
 402,  401,  402,  440,  439
 403,  402,  403,  441,  440
 404,  403,  404,  442,  441
 405,  404,  405,  443,  442
 406,  405,  406,  444,  443
 407,  406,  407,  445,  444
 408,  407,  408,  446,  445
 409,  408,  409,  447,  446
 410,  409,  410,  448,  447
 411,  410,  411,  449,  448
 412,  411,  412,  450,  449
 413,  412,  413,  451,  450
 414,  413,  414,  452,  451
 415,  414,  415,  453,  452
 416,  415,  416,  454,  453
 417,  416,  417,  455,  454
 418,  417,  418,  456,  455
 419,  456,  419,  457,  494
 420,  419,  420,  458,  457
 421,  420,  421,  459,  458
 422,  421,  422,  460,  459
 423,  422,  423,  461,  460
 424,  423,  424,  462,  461
 425,  424,  425,  463,  462
 426,  425,  426,  464,  463
 427,  426,  427,  465,  464
 428,  427,  428,  466,  465
 429,  428,  429,  467,  466
 430,  429,  430,  468,  467
 431,  430,  431,  469,  468
 432,  431,  432,  470,  469
 433,  432,  433,  471,  470
 434,  433,  434,  472,  471
 435,  434,  435,  473,  472
 436,  435,  436,  474,  473
 437,  436,  437,  475,  474
 438,  437,  438,  476,  475
 439,  438,  439,  477,  476
 440,  439,  440,  478,  477
 441,  440,  441,  479,  478
 442,  441,  442,  480,  479
 443,  442,  443,  481,  480
 444,  443,  444,  482,  481
 445,  444,  445,  483,  482
 446,  445,  446,  484,  483
 447,  446,  447,  485,  484
 448,  447,  448,  486,  485
 449,  448,  449,  487,  486
 450,  449,  450,  488,  487
 451,  450,  451,  489,  488
 452,  451,  452,  490,  489
 453,  452,  453,  491,  490
 454,  453,  454,  492,  491
 455,  454,  455,  493,  492
 456,  455,  456,  494,  493
 457,  494,  457,  495,  532
 458,  457,  458,  496,  495
 459,  458,  459,  497,  496
 460,  459,  460,  498,  497
 461,  460,  461,  499,  498
 462,  461,  462,  500,  499
 463,  462,  463,  501,  500
 464,  463,  464,  502,  501
 465,  464,  465,  503,  502
 466,  465,  466,  504,  503
 467,  466,  467,  505,  504
 468,  467,  468,  506,  505
 469,  468,  469,  507,  506
 470,  469,  470,  508,  507
 471,  470,  471,  509,  508
 472,  471,  472,  510,  509
 473,  472,  473,  511,  510
 474,  473,  474,  512,  511
 475,  474,  475,  513,  512
 476,  475,  476,  514,  513
 477,  476,  477,  515,  514
 478,  477,  478,  516,  515
 479,  478,  479,  517,  516
 480,  479,  480,  518,  517
 481,  480,  481,  519,  518
 482,  481,  482,  520,  519
 483,  482,  483,  521,  520
 484,  483,  484,  522,  521
 485,  484,  485,  523,  522
 486,  485,  486,  524,  523
 487,  486,  487,  525,  524
 488,  487,  488,  526,  525
 489,  488,  489,  527,  526
 490,  489,  490,  528,  527
 491,  490,  491,  529,  528
 492,  491,  492,  530,  529
 493,  492,  493,  531,  530
 494,  493,  494,  532,  531
 495,  532,  495,  533,  570
 496,  495,  496,  534,  533
 497,  496,  497,  535,  534
 498,  497,  498,  536,  535
 499,  498,  499,  537,  536
 500,  499,  500,  538,  537
 501,  500,  501,  539,  538
 502,  501,  502,  540,  539
 503,  502,  503,  541,  540
 504,  503,  504,  542,  541
 505,  504,  505,  543,  542
 506,  505,  506,  544,  543
 507,  506,  507,  545,  544
 508,  507,  508,  546,  545
 509,  508,  509,  547,  546
 510,  509,  510,  548,  547
 511,  510,  511,  549,  548
 512,  511,  512,  550,  549
 513,  512,  513,  551,  550
 514,  513,  514,  552,  551
 515,  514,  515,  553,  552
 516,  515,  516,  554,  553
 517,  516,  517,  555,  554
 518,  517,  518,  556,  555
 519,  518,  519,  557,  556
 520,  519,  520,  558,  557
 521,  520,  521,  559,  558
 522,  521,  522,  560,  559
 523,  522,  523,  561,  560
 524,  523,  524,  562,  561
 525,  524,  525,  563,  562
 526,  525,  526,  564,  563
 527,  526,  527,  565,  564
 528,  527,  528,  566,  565
 529,  528,  529,  567,  566
 530,  529,  530,  568,  567
 531,  530,  531,  569,  568
 532,  531,  532,  570,  569
 533,  570,  533,  571,  608
 534,  533,  534,  572,  571
 535,  534,  535,  573,  572
 536,  535,  536,  574,  573
 537,  536,  537,  575,  574
 538,  537,  538,  576,  575
 539,  538,  539,  577,  576
 540,  539,  540,  578,  577
 541,  540,  541,  579,  578
 542,  541,  542,  580,  579
 543,  542,  543,  581,  580
 544,  543,  544,  582,  581
 545,  544,  545,  583,  582
 546,  545,  546,  584,  583
 547,  546,  547,  585,  584
 548,  547,  548,  586,  585
 549,  548,  549,  587,  586
 550,  549,  550,  588,  587
 551,  550,  551,  589,  588
 552,  551,  552,  590,  589
 553,  552,  553,  591,  590
 554,  553,  554,  592,  591
 555,  554,  555,  593,  592
 556,  555,  556,  594,  593
 557,  556,  557,  595,  594
 558,  557,  558,  596,  595
 559,  558,  559,  597,  596
 560,  559,  560,  598,  597
 561,  560,  561,  599,  598
 562,  561,  562,  600,  599
 563,  562,  563,  601,  600
 564,  563,  564,  602,  601
 565,  564,  565,  603,  602
 566,  565,  566,  604,  603
 567,  566,  567,  605,  604
 568,  567,  568,  606,  605
 569,  568,  569,  607,  606
 570,  569,  570,  608,  607
 571,  608,  571,  609,  646
 572,  571,  572,  610,  609
 573,  572,  573,  611,  610
 574,  573,  574,  612,  611
 575,  574,  575,  613,  612
 576,  575,  576,  614,  613
 577,  576,  577,  615,  614
 578,  577,  578,  616,  615
 579,  578,  579,  617,  616
 580,  579,  580,  618,  617
 581,  580,  581,  619,  618
 582,  581,  582,  620,  619
 583,  582,  583,  621,  620
 584,  583,  584,  622,  621
 585,  584,  585,  623,  622
 586,  585,  586,  624,  623
 587,  586,  587,  625,  624
 588,  587,  588,  626,  625
 589,  588,  589,  627,  626
 590,  589,  590,  628,  627
 591,  590,  591,  629,  628
 592,  591,  592,  630,  629
 593,  592,  593,  631,  630
 594,  593,  594,  632,  631
 595,  594,  595,  633,  632
 596,  595,  596,  634,  633
 597,  596,  597,  635,  634
 598,  597,  598,  636,  635
 599,  598,  599,  637,  636
 600,  599,  600,  638,  637
 601,  600,  601,  639,  638
 602,  601,  602,  640,  639
 603,  602,  603,  641,  640
 604,  603,  604,  642,  641
 605,  604,  605,  643,  642
 606,  605,  606,  644,  643
 607,  606,  607,  645,  644
 608,  607,  608,  646,  645
 609,  646,  609,  647,  684
 610,  609,  610,  648,  647
 611,  610,  611,  649,  648
 612,  611,  612,  650,  649
 613,  612,  613,  651,  650
 614,  613,  614,  652,  651
 615,  614,  615,  653,  652
 616,  615,  616,  654,  653
 617,  616,  617,  655,  654
 618,  617,  618,  656,  655
 619,  618,  619,  657,  656
 620,  619,  620,  658,  657
 621,  620,  621,  659,  658
 622,  621,  622,  660,  659
 623,  622,  623,  661,  660
 624,  623,  624,  662,  661
 625,  624,  625,  663,  662
 626,  625,  626,  664,  663
 627,  626,  627,  665,  664
 628,  627,  628,  666,  665
 629,  628,  629,  667,  666
 630,  629,  630,  668,  667
 631,  630,  631,  669,  668
 632,  631,  632,  670,  669
 633,  632,  633,  671,  670
 634,  633,  634,  672,  671
 635,  634,  635,  673,  672
 636,  635,  636,  674,  673
 637,  636,  637,  675,  674
 638,  637,  638,  676,  675
 639,  638,  639,  677,  676
 640,  639,  640,  678,  677
 641,  640,  641,  679,  678
 642,  641,  642,  680,  679
 643,  642,  643,  681,  680
 644,  643,  644,  682,  681
 645,  644,  645,  683,  682
 646,  645,  646,  684,  683
 647,  684,  647,  685,  722
 648,  647,  648,  686,  685
 649,  648,  649,  687,  686
 650,  649,  650,  688,  687
 651,  650,  651,  689,  688
 652,  651,  652,  690,  689
 653,  652,  653,  691,  690
 654,  653,  654,  692,  691
 655,  654,  655,  693,  692
 656,  655,  656,  694,  693
 657,  656,  657,  695,  694
 658,  657,  658,  696,  695
 659,  658,  659,  697,  696
 660,  659,  660,  698,  697
 661,  660,  661,  699,  698
 662,  661,  662,  700,  699
 663,  662,  663,  701,  700
 664,  663,  664,  702,  701
 665,  664,  665,  703,  702
 666,  665,  666,  704,  703
 667,  666,  667,  705,  704
 668,  667,  668,  706,  705
 669,  668,  669,  707,  706
 670,  669,  670,  708,  707
 671,  670,  671,  709,  708
 672,  671,  672,  710,  709
 673,  672,  673,  711,  710
 674,  673,  674,  712,  711
 675,  674,  675,  713,  712
 676,  675,  676,  714,  713
 677,  676,  677,  715,  714
 678,  677,  678,  716,  715
 679,  678,  679,  717,  716
 680,  679,  680,  718,  717
 681,  680,  681,  719,  718
 682,  681,  682,  720,  719
 683,  682,  683,  721,  720
 684,  683,  684,  722,  721
 685,  722,  685,  723,  760
 686,  685,  686,  724,  723
 687,  686,  687,  725,  724
 688,  687,  688,  726,  725
 689,  688,  689,  727,  726
 690,  689,  690,  728,  727
 691,  690,  691,  729,  728
 692,  691,  692,  730,  729
 693,  692,  693,  731,  730
 694,  693,  694,  732,  731
 695,  694,  695,  733,  732
 696,  695,  696,  734,  733
 697,  696,  697,  735,  734
 698,  697,  698,  736,  735
 699,  698,  699,  737,  736
 700,  699,  700,  738,  737
 701,  700,  701,  739,  738
 702,  701,  702,  740,  739
 703,  702,  703,  741,  740
 704,  703,  704,  742,  741
 705,  704,  705,  743,  742
 706,  705,  706,  744,  743
 707,  706,  707,  745,  744
 708,  707,  708,  746,  745
 709,  708,  709,  747,  746
 710,  709,  710,  748,  747
 711,  710,  711,  749,  748
 712,  711,  712,  750,  749
 713,  712,  713,  751,  750
 714,  713,  714,  752,  751
 715,  714,  715,  753,  752
 716,  715,  716,  754,  753
 717,  716,  717,  755,  754
 718,  717,  718,  756,  755
 719,  718,  719,  757,  756
 720,  719,  720,  758,  757
 721,  720,  721,  759,  758
 722,  721,  722,  760,  759
 723,  760,  723,  761,  798
 724,  723,  724,  762,  761
 725,  724,  725,  763,  762
 726,  725,  726,  764,  763
 727,  726,  727,  765,  764
 728,  727,  728,  766,  765
 729,  728,  729,  767,  766
 730,  729,  730,  768,  767
 731,  730,  731,  769,  768
 732,  731,  732,  770,  769
 733,  732,  733,  771,  770
 734,  733,  734,  772,  771
 735,  734,  735,  773,  772
 736,  735,  736,  774,  773
 737,  736,  737,  775,  774
 738,  737,  738,  776,  775
 739,  738,  739,  777,  776
 740,  739,  740,  778,  777
 741,  740,  741,  779,  778
 742,  741,  742,  780,  779
 743,  742,  743,  781,  780
 744,  743,  744,  782,  781
 745,  744,  745,  783,  782
 746,  745,  746,  784,  783
 747,  746,  747,  785,  784
 748,  747,  748,  786,  785
 749,  748,  749,  787,  786
 750,  749,  750,  788,  787
 751,  750,  751,  789,  788
 752,  751,  752,  790,  789
 753,  752,  753,  791,  790
 754,  753,  754,  792,  791
 755,  754,  755,  793,  792
 756,  755,  756,  794,  793
 757,  756,  757,  795,  794
 758,  757,  758,  796,  795
 759,  758,  759,  797,  796
 760,  759,  760,  798,  797
 761,  798,  761,  799,  836
 762,  761,  762,  800,  799
 763,  762,  763,  801,  800
 764,  763,  764,  802,  801
 765,  764,  765,  803,  802
 766,  765,  766,  804,  803
 767,  766,  767,  805,  804
 768,  767,  768,  806,  805
 769,  768,  769,  807,  806
 770,  769,  770,  808,  807
 771,  770,  771,  809,  808
 772,  771,  772,  810,  809
 773,  772,  773,  811,  810
 774,  773,  774,  812,  811
 775,  774,  775,  813,  812
 776,  775,  776,  814,  813
 777,  776,  777,  815,  814
 778,  777,  778,  816,  815
 779,  778,  779,  817,  816
 780,  779,  780,  818,  817
 781,  780,  781,  819,  818
 782,  781,  782,  820,  819
 783,  782,  783,  821,  820
 784,  783,  784,  822,  821
 785,  784,  785,  823,  822
 786,  785,  786,  824,  823
 787,  786,  787,  825,  824
 788,  787,  788,  826,  825
 789,  788,  789,  827,  826
 790,  789,  790,  828,  827
 791,  790,  791,  829,  828
 792,  791,  792,  830,  829
 793,  792,  793,  831,  830
 794,  793,  794,  832,  831
 795,  794,  795,  833,  832
 796,  795,  796,  834,  833
 797,  796,  797,  835,  834
 798,  797,  798,  836,  835
 799,  836,  799,  837,  874
 800,  799,  800,  838,  837
 801,  800,  801,  839,  838
 802,  801,  802,  840,  839
 803,  802,  803,  841,  840
 804,  803,  804,  842,  841
 805,  804,  805,  843,  842
 806,  805,  806,  844,  843
 807,  806,  807,  845,  844
 808,  807,  808,  846,  845
 809,  808,  809,  847,  846
 810,  809,  810,  848,  847
 811,  810,  811,  849,  848
 812,  811,  812,  850,  849
 813,  812,  813,  851,  850
 814,  813,  814,  852,  851
 815,  814,  815,  853,  852
 816,  815,  816,  854,  853
 817,  816,  817,  855,  854
 818,  817,  818,  856,  855
 819,  818,  819,  857,  856
 820,  819,  820,  858,  857
 821,  820,  821,  859,  858
 822,  821,  822,  860,  859
 823,  822,  823,  861,  860
 824,  823,  824,  862,  861
 825,  824,  825,  863,  862
 826,  825,  826,  864,  863
 827,  826,  827,  865,  864
 828,  827,  828,  866,  865
 829,  828,  829,  867,  866
 830,  829,  830,  868,  867
 831,  830,  831,  869,  868
 832,  831,  832,  870,  869
 833,  832,  833,  871,  870
 834,  833,  834,  872,  871
 835,  834,  835,  873,  872
 836,  835,  836,  874,  873
 837,  874,  837,  875,  912
 838,  837,  838,  876,  875
 839,  838,  839,  877,  876
 840,  839,  840,  878,  877
 841,  840,  841,  879,  878
 842,  841,  842,  880,  879
 843,  842,  843,  881,  880
 844,  843,  844,  882,  881
 845,  844,  845,  883,  882
 846,  845,  846,  884,  883
 847,  846,  847,  885,  884
 848,  847,  848,  886,  885
 849,  848,  849,  887,  886
 850,  849,  850,  888,  887
 851,  850,  851,  889,  888
 852,  851,  852,  890,  889
 853,  852,  853,  891,  890
 854,  853,  854,  892,  891
 855,  854,  855,  893,  892
 856,  855,  856,  894,  893
 857,  856,  857,  895,  894
 858,  857,  858,  896,  895
 859,  858,  859,  897,  896
 860,  859,  860,  898,  897
 861,  860,  861,  899,  898
 862,  861,  862,  900,  899
 863,  862,  863,  901,  900
 864,  863,  864,  902,  901
 865,  864,  865,  903,  902
 866,  865,  866,  904,  903
 867,  866,  867,  905,  904
 868,  867,  868,  906,  905
 869,  868,  869,  907,  906
 870,  869,  870,  908,  907
 871,  870,  871,  909,  908
 872,  871,  872,  910,  909
 873,  872,  873,  911,  910
 874,  873,  874,  912,  911
 875,  912,  875,  913,  950
 876,  875,  876,  914,  913
 877,  876,  877,  915,  914
 878,  877,  878,  916,  915
 879,  878,  879,  917,  916
 880,  879,  880,  918,  917
 881,  880,  881,  919,  918
 882,  881,  882,  920,  919
 883,  882,  883,  921,  920
 884,  883,  884,  922,  921
 885,  884,  885,  923,  922
 886,  885,  886,  924,  923
 887,  886,  887,  925,  924
 888,  887,  888,  926,  925
 889,  888,  889,  927,  926
 890,  889,  890,  928,  927
 891,  890,  891,  929,  928
 892,  891,  892,  930,  929
 893,  892,  893,  931,  930
 894,  893,  894,  932,  931
 895,  894,  895,  933,  932
 896,  895,  896,  934,  933
 897,  896,  897,  935,  934
 898,  897,  898,  936,  935
 899,  898,  899,  937,  936
 900,  899,  900,  938,  937
 901,  900,  901,  939,  938
 902,  901,  902,  940,  939
 903,  902,  903,  941,  940
 904,  903,  904,  942,  941
 905,  904,  905,  943,  942
 906,  905,  906,  944,  943
 907,  906,  907,  945,  944
 908,  907,  908,  946,  945
 909,  908,  909,  947,  946
 910,  909,  910,  948,  947
 911,  910,  911,  949,  948
 912,  911,  912,  950,  949
 913,  950,  913,  951,  988
 914,  913,  914,  952,  951
 915,  914,  915,  953,  952
 916,  915,  916,  954,  953
 917,  916,  917,  955,  954
 918,  917,  918,  956,  955
 919,  918,  919,  957,  956
 920,  919,  920,  958,  957
 921,  920,  921,  959,  958
 922,  921,  922,  960,  959
 923,  922,  923,  961,  960
 924,  923,  924,  962,  961
 925,  924,  925,  963,  962
 926,  925,  926,  964,  963
 927,  926,  927,  965,  964
 928,  927,  928,  966,  965
 929,  928,  929,  967,  966
 930,  929,  930,  968,  967
 931,  930,  931,  969,  968
 932,  931,  932,  970,  969
 933,  932,  933,  971,  970
 934,  933,  934,  972,  971
 935,  934,  935,  973,  972
 936,  935,  936,  974,  973
 937,  936,  937,  975,  974
 938,  937,  938,  976,  975
 939,  938,  939,  977,  976
 940,  939,  940,  978,  977
 941,  940,  941,  979,  978
 942,  941,  942,  980,  979
 943,  942,  943,  981,  980
 944,  943,  944,  982,  981
 945,  944,  945,  983,  982
 946,  945,  946,  984,  983
 947,  946,  947,  985,  984
 948,  947,  948,  986,  985
 949,  948,  949,  987,  986
 950,  949,  950,  988,  987
 951,  988,  951,  989, 1026
 952,  951,  952,  990,  989
 953,  952,  953,  991,  990
 954,  953,  954,  992,  991
 955,  954,  955,  993,  992
 956,  955,  956,  994,  993
 957,  956,  957,  995,  994
 958,  957,  958,  996,  995
 959,  958,  959,  997,  996
 960,  959,  960,  998,  997
 961,  960,  961,  999,  998
 962,  961,  962, 1000,  999
 963,  962,  963, 1001, 1000
 964,  963,  964, 1002, 1001
 965,  964,  965, 1003, 1002
 966,  965,  966, 1004, 1003
 967,  966,  967, 1005, 1004
 968,  967,  968, 1006, 1005
 969,  968,  969, 1007, 1006
 970,  969,  970, 1008, 1007
 971,  970,  971, 1009, 1008
 972,  971,  972, 1010, 1009
 973,  972,  973, 1011, 1010
 974,  973,  974, 1012, 1011
 975,  974,  975, 1013, 1012
 976,  975,  976, 1014, 1013
 977,  976,  977, 1015, 1014
 978,  977,  978, 1016, 1015
 979,  978,  979, 1017, 1016
 980,  979,  980, 1018, 1017
 981,  980,  981, 1019, 1018
 982,  981,  982, 1020, 1019
 983,  982,  983, 1021, 1020
 984,  983,  984, 1022, 1021
 985,  984,  985, 1023, 1022
 986,  985,  986, 1024, 1023
 987,  986,  987, 1025, 1024
 988,  987,  988, 1026, 1025
 989, 1026,  989, 1027, 1064
 990,  989,  990, 1028, 1027
 991,  990,  991, 1029, 1028
 992,  991,  992, 1030, 1029
 993,  992,  993, 1031, 1030
 994,  993,  994, 1032, 1031
 995,  994,  995, 1033, 1032
 996,  995,  996, 1034, 1033
 997,  996,  997, 1035, 1034
 998,  997,  998, 1036, 1035
 999,  998,  999, 1037, 1036
1000,  999, 1000, 1038, 1037
1001, 1000, 1001, 1039, 1038
1002, 1001, 1002, 1040, 1039
1003, 1002, 1003, 1041, 1040
1004, 1003, 1004, 1042, 1041
1005, 1004, 1005, 1043, 1042
1006, 1005, 1006, 1044, 1043
1007, 1006, 1007, 1045, 1044
1008, 1007, 1008, 1046, 1045
1009, 1008, 1009, 1047, 1046
1010, 1009, 1010, 1048, 1047
1011, 1010, 1011, 1049, 1048
1012, 1011, 1012, 1050, 1049
1013, 1012, 1013, 1051, 1050
1014, 1013, 1014, 1052, 1051
1015, 1014, 1015, 1053, 1052
1016, 1015, 1016, 1054, 1053
1017, 1016, 1017, 1055, 1054
1018, 1017, 1018, 1056, 1055
1019, 1018, 1019, 1057, 1056
1020, 1019, 1020, 1058, 1057
1021, 1020, 1021, 1059, 1058
1022, 1021, 1022, 1060, 1059
1023, 1022, 1023, 1061, 1060
1024, 1023, 1024, 1062, 1061
1025, 1024, 1025, 1063, 1062
1026, 1025, 1026, 1064, 1063
1027, 1064, 1027, 1065, 1102
1028, 1027, 1028, 1066, 1065
1029, 1028, 1029, 1067, 1066
1030, 1029, 1030, 1068, 1067
1031, 1030, 1031, 1069, 1068
1032, 1031, 1032, 1070, 1069
1033, 1032, 1033, 1071, 1070
1034, 1033, 1034, 1072, 1071
1035, 1034, 1035, 1073, 1072
1036, 1035, 1036, 1074, 1073
1037, 1036, 1037, 1075, 1074
1038, 1037, 1038, 1076, 1075
1039, 1038, 1039, 1077, 1076
1040, 1039, 1040, 1078, 1077
1041, 1040, 1041, 1079, 1078
1042, 1041, 1042, 1080, 1079
1043, 1042, 1043, 1081, 1080
1044, 1043, 1044, 1082, 1081
1045, 1044, 1045, 1083, 1082
1046, 1045, 1046, 1084, 1083
1047, 1046, 1047, 1085, 1084
1048, 1047, 1048, 1086, 1085
1049, 1048, 1049, 1087, 1086
1050, 1049, 1050, 1088, 1087
1051, 1050, 1051, 1089, 1088
1052, 1051, 1052, 1090, 1089
1053, 1052, 1053, 1091, 1090
1054, 1053, 1054, 1092, 1091
1055, 1054, 1055, 1093, 1092
1056, 1055, 1056, 1094, 1093
1057, 1056, 1057, 1095, 1094
1058, 1057, 1058, 1096, 1095
1059, 1058, 1059, 1097, 1096
1060, 1059, 1060, 1098, 1097
1061, 1060, 1061, 1099, 1098
1062, 1061, 1062, 1100, 1099
1063, 1062, 1063, 1101, 1100
1064, 1063, 1064, 1102, 1101
1065, 1102, 1065, 1103, 1140
1066, 1065, 1066, 1104, 1103
1067, 1066, 1067, 1105, 1104
1068, 1067, 1068, 1106, 1105
1069, 1068, 1069, 1107, 1106
1070, 1069, 1070, 1108, 1107
1071, 1070, 1071, 1109, 1108
1072, 1071, 1072, 1110, 1109
1073, 1072, 1073, 1111, 1110
1074, 1073, 1074, 1112, 1111
1075, 1074, 1075, 1113, 1112
1076, 1075, 1076, 1114, 1113
1077, 1076, 1077, 1115, 1114
1078, 1077, 1078, 1116, 1115
1079, 1078, 1079, 1117, 1116
1080, 1079, 1080, 1118, 1117
1081, 1080, 1081, 1119, 1118
1082, 1081, 1082, 1120, 1119
1083, 1082, 1083, 1121, 1120
1084, 1083, 1084, 1122, 1121
1085, 1084, 1085, 1123, 1122
1086, 1085, 1086, 1124, 1123
1087, 1086, 1087, 1125, 1124
1088, 1087, 1088, 1126, 1125
1089, 1088, 1089, 1127, 1126
1090, 1089, 1090, 1128, 1127
1091, 1090, 1091, 1129, 1128
1092, 1091, 1092, 1130, 1129
1093, 1092, 1093, 1131, 1130
1094, 1093, 1094, 1132, 1131
1095, 1094, 1095, 1133, 1132
1096, 1095, 1096, 1134, 1133
1097, 1096, 1097, 1135, 1134
1098, 1097, 1098, 1136, 1135
1099, 1098, 1099, 1137, 1136
1100, 1099, 1100, 1138, 1137
1101, 1100, 1101, 1139, 1138
1102, 1101, 1102, 1140, 1139
1103, 1140, 1103, 1141, 1178
1104, 1103, 1104, 1142, 1141
1105, 1104, 1105, 1143, 1142
1106, 1105, 1106, 1144, 1143
1107, 1106, 1107, 1145, 1144
1108, 1107, 1108, 1146, 1145
1109, 1108, 1109, 1147, 1146
1110, 1109, 1110, 1148, 1147
1111, 1110, 1111, 1149, 1148
1112, 1111, 1112, 1150, 1149
1113, 1112, 1113, 1151, 1150
1114, 1113, 1114, 1152, 1151
1115, 1114, 1115, 1153, 1152
1116, 1115, 1116, 1154, 1153
1117, 1116, 1117, 1155, 1154
1118, 1117, 1118, 1156, 1155
1119, 1118, 1119, 1157, 1156
1120, 1119, 1120, 1158, 1157
1121, 1120, 1121, 1159, 1158
1122, 1121, 1122, 1160, 1159
1123, 1122, 1123, 1161, 1160
1124, 1123, 1124, 1162, 1161
1125, 1124, 1125, 1163, 1162
1126, 1125, 1126, 1164, 1163
1127, 1126, 1127, 1165, 1164
1128, 1127, 1128, 1166, 1165
1129, 1128, 1129, 1167, 1166
1130, 1129, 1130, 1168, 1167
1131, 1130, 1131, 1169, 1168
1132, 1131, 1132, 1170, 1169
1133, 1132, 1133, 1171, 1170
1134, 1133, 1134, 1172, 1171
1135, 1134, 1135, 1173, 1172
1136, 1135, 1136, 1174, 1173
1137, 1136, 1137, 1175, 1174
1138, 1137, 1138, 1176, 1175
1139, 1138, 1139, 1177, 1176
1140, 1139, 1140, 1178, 1177
*Orientation, name=Ori-1
1., 0., 0., 0., 1., 0.
1, 0.
** Region: (CompositeLayup-1-1: Generated From Layup)
*Elset, elset=CompositeLayup-1-1, generate
    1,  1140,     1
** Section: CompositeLayup-1-1
*Shell Section, elset=CompositeLayup-1-1, composite, orientation=Ori-1, density=0., layup=CompositeLayup-1
0.41385, 3, Composite, 90., Ply-1
0.41385, 3, Composite, 90., Ply-2
0.41385, 3, Composite, 90., Ply-3
0.41385, 3, Composite, 90., Ply-4
0.41385, 3, Composite, 90., Ply-5
0.41385, 3, Composite, 45., Ply-6
0.41385, 3, Composite, -45., Ply-7
0.41385, 3, Composite, 0., Ply-8
0.41385, 3, Composite, 90., Ply-9
0.41385, 3, Composite, 45., Ply-10
0.41385, 3, Composite, -45., Ply-11
0.41385, 3, Composite, 0., Ply-12
0.41385, 3, Composite, 90., Ply-13
0.41385, 3, Composite, 45., Ply-14
0.41385, 3, Composite, -45., Ply-15
0.41385, 3, Composite, 0., Ply-16
0.41385, 3, Composite, 90., Ply-17
0.41385, 3, Composite, 45., Ply-18
0.41385, 3, Composite, -45., Ply-19
0.41385, 3, Composite, 0., Ply-20
0.41385, 3, Composite, 90., Ply-21
0.41385, 3, Composite, 45., Ply-22
0.41385, 3, Composite, -45., Ply-23
0.41385, 3, Composite, 0., Ply-24
0.41385, 3, Composite, 90., Ply-25
0.41385, 3, Composite, 45., Ply-26
0.41385, 3, Composite, -45., Ply-27
0.41385, 3, Composite, 0., Ply-28
0.41385, 3, Composite, 90., Ply-29
0.41385, 3, Composite, 45., Ply-30
0.41385, 3, Composite, -45., Ply-31
0.41385, 3, Composite, 0., Ply-32
0.41385, 3, Composite, 90., Ply-33
0.41385, 3, Composite, 45., Ply-34
0.41385, 3, Composite, -45., Ply-35
0.41385, 3, Composite, 0., Ply-36
0.41385, 3, Composite, 90., Ply-37
0.41385, 3, Composite, 90., Ply-38
0.41385, 3, Composite, 90., Ply-39
0.41385, 3, Composite, 90., Ply-40
*End Part
**
**
** ASSEMBLY
**
*Assembly, name=Assembly
**
*Instance, name=CompositeHull-1, part=CompositeHull
*End Instance
**
*Nset, nset=_PickedSet5, internal, instance=CompositeHull-1, generate
  1,  38,   1
*Elset, elset=_PickedSet5, internal, instance=CompositeHull-1, generate
  1,  38,   1
*Nset, nset=_PickedSet6, internal, instance=CompositeHull-1, generate
 1141,  1178,     1
*Elset, elset=_PickedSet6, internal, instance=CompositeHull-1, generate
 1103,  1140,     1
*Elset, elset=__PickedSurf4_SPOS, internal, instance=CompositeHull-1, generate
    1,  1140,     1
*Surface, type=ELEMENT, name=_PickedSurf4, internal
__PickedSurf4_SPOS, SPOS
*End Assembly
**
** MATERIALS
**
*Material, name=Composite
*Density
 1.6e-09,
*Elastic, type=LAMINA
218000.,9070.,  0.3,6350.,6350.,5080.
*Fail Stress
2088.,1212., 22.5, 196., 61.1,   0.,   0.
**
** BOUNDARY CONDITIONS
**
** Name: BC-End-0 Type: �Գ�/���Գ�/��ȫ�̶�
*Boundary
_PickedSet5, ENCASTRE
** Name: BC-End-1 Type: �Գ�/���Գ�/��ȫ�̶�
*Boundary
_PickedSet6, ENCASTRE
** ----------------------------------------------------------------
**
** STEP: Step-1
**
*Step, name=Step-1, nlgeom=NO, perturbation
*Buckle
8, , 12, 300
**
** BOUNDARY CONDITIONS
**
** Name: BC-End-0 Type: �Գ�/���Գ�/��ȫ�̶�
*Boundary, op=NEW, load case=1
_PickedSet5, ENCASTRE
*Boundary, op=NEW, load case=2
_PickedSet5, ENCASTRE
** Name: BC-End-1 Type: �Գ�/���Գ�/��ȫ�̶�
*Boundary, op=NEW, load case=1
_PickedSet6, ENCASTRE
*Boundary, op=NEW, load case=2
_PickedSet6, ENCASTRE
**
** LOADS
**
** Name: ExternalPressure   Type: Pressure
*Dsload
_PickedSurf4, P, 1.
**
** OUTPUT REQUESTS
**
*Restart, write, frequency=0
**
** FIELD OUTPUT: F-Output-1
**
*Output, field, variable=PRESELECT
*Node File
U
*End Step
