*Heading
 CSDM_cph pressure hull first-mode imperfection Riks postbuckling
** Job name: C5_post Model name: CPH_Post_Model
** Generated by: Abaqus/CAE 2023
*Preprint, echo=NO, model=NO, history=NO, contact=NO
**
** PARTS
**
*Part, name=CompositeHull
*Node
      1,   100.462547,           0.,  -20.6455784
      2,   94.2501526,           0.,  -40.4459267
      3,   84.1791382,           0.,  -58.5904121
      4,   70.6618271,           0.,  -74.3361969
      5,    54.251606,           0.,  -87.0386505
      6,   35.6203232,           0.,  -96.1777344
      7,    15.530736,           0.,  -101.379288
      8,  -5.19468021,           0.,  -102.430359
      9,  -25.7074242,           0.,  -99.2879257
     10,  -45.1677055,           0.,  -92.0806274
     11,  -62.7788124,           0.,  -81.1035385
     12,  -77.8197479,           0.,  -66.8060608
     13,   -89.674736,           0.,  -49.7735405
     14,   -97.858429,           0.,  -30.7032814
     15,  -102.035789,           0.,  -10.3760252
     16,  -102.035789,           0.,   10.3760252
     17,   -97.858429,           0.,   30.7032814
     18,   -89.674736,           0.,   49.7735405
     19,  -77.8197479,           0.,   66.8060608
     20,  -62.7788124,           0.,   81.1035385
     21,  -45.1677055,           0.,   92.0806274
     22,  -25.7074242,           0.,   99.2879257
     23,  -5.19468021,           0.,   102.430359
     24,    15.530736,           0.,   101.379288
     25,   35.6203232,           0.,   96.1777344
     26,    54.251606,           0.,   87.0386505
     27,   70.6618271,           0.,   74.3361969
     28,   84.1791382,           0.,   58.5904121
     29,   94.2501526,           0.,   40.4459267
     30,   100.462547,           0.,   20.6455784
     31,   102.561996,           0.,           0.
     32,   100.462547,   20.2690849,  -20.6455784
     33,   94.2501526,   20.2690849,  -40.4459267
     34,   84.1791382,   20.2690849,  -58.5904121
     35,   70.6618271,   20.2690849,  -74.3361969
     36,    54.251606,   20.2690849,  -87.0386505
     37,   35.6203232,   20.2690849,  -96.1777344
     38,    15.530736,   20.2690849,  -101.379288
     39,  -5.19468021,   20.2690849,  -102.430359
     40,  -25.7074242,   20.2690849,  -99.2879257
     41,  -45.1677055,   20.2690849,  -92.0806274
     42,  -62.7788124,   20.2690849,  -81.1035385
     43,  -77.8197479,   20.2690849,  -66.8060608
     44,   -89.674736,   20.2690849,  -49.7735405
     45,   -97.858429,   20.2690849,  -30.7032814
     46,  -102.035789,   20.2690849,  -10.3760252
     47,  -102.035789,   20.2690849,   10.3760252
     48,   -97.858429,   20.2690849,   30.7032814
     49,   -89.674736,   20.2690849,   49.7735405
     50,  -77.8197479,   20.2690849,   66.8060608
     51,  -62.7788124,   20.2690849,   81.1035385
     52,  -45.1677055,   20.2690849,   92.0806274
     53,  -25.7074242,   20.2690849,   99.2879257
     54,  -5.19468021,   20.2690849,   102.430359
     55,    15.530736,   20.2690849,   101.379288
     56,   35.6203232,   20.2690849,   96.1777344
     57,    54.251606,   20.2690849,   87.0386505
     58,   70.6618271,   20.2690849,   74.3361969
     59,   84.1791382,   20.2690849,   58.5904121
     60,   94.2501526,   20.2690849,   40.4459267
     61,   100.462547,   20.2690849,   20.6455784
     62,   102.561996,   20.2690849,           0.
     63,   100.462547,   40.5381699,  -20.6455784
     64,   94.2501526,   40.5381699,  -40.4459267
     65,   84.1791382,   40.5381699,  -58.5904121
     66,   70.6618271,   40.5381699,  -74.3361969
     67,    54.251606,   40.5381699,  -87.0386505
     68,   35.6203232,   40.5381699,  -96.1777344
     69,    15.530736,   40.5381699,  -101.379288
     70,  -5.19468021,   40.5381699,  -102.430359
     71,  -25.7074242,   40.5381699,  -99.2879257
     72,  -45.1677055,   40.5381699,  -92.0806274
     73,  -62.7788124,   40.5381699,  -81.1035385
     74,  -77.8197479,   40.5381699,  -66.8060608
     75,   -89.674736,   40.5381699,  -49.7735405
     76,   -97.858429,   40.5381699,  -30.7032814
     77,  -102.035789,   40.5381699,  -10.3760252
     78,  -102.035789,   40.5381699,   10.3760252
     79,   -97.858429,   40.5381699,   30.7032814
     80,   -89.674736,   40.5381699,   49.7735405
     81,  -77.8197479,   40.5381699,   66.8060608
     82,  -62.7788124,   40.5381699,   81.1035385
     83,  -45.1677055,   40.5381699,   92.0806274
     84,  -25.7074242,   40.5381699,   99.2879257
     85,  -5.19468021,   40.5381699,   102.430359
     86,    15.530736,   40.5381699,   101.379288
     87,   35.6203232,   40.5381699,   96.1777344
     88,    54.251606,   40.5381699,   87.0386505
     89,   70.6618271,   40.5381699,   74.3361969
     90,   84.1791382,   40.5381699,   58.5904121
     91,   94.2501526,   40.5381699,   40.4459267
     92,   100.462547,   40.5381699,   20.6455784
     93,   102.561996,   40.5381699,           0.
     94,   100.462547,   60.8072586,  -20.6455784
     95,   94.2501526,   60.8072586,  -40.4459267
     96,   84.1791382,   60.8072586,  -58.5904121
     97,   70.6618271,   60.8072586,  -74.3361969
     98,    54.251606,   60.8072586,  -87.0386505
     99,   35.6203232,   60.8072586,  -96.1777344
    100,    15.530736,   60.8072586,  -101.379288
    101,  -5.19468021,   60.8072586,  -102.430359
    102,  -25.7074242,   60.8072586,  -99.2879257
    103,  -45.1677055,   60.8072586,  -92.0806274
    104,  -62.7788124,   60.8072586,  -81.1035385
    105,  -77.8197479,   60.8072586,  -66.8060608
    106,   -89.674736,   60.8072586,  -49.7735405
    107,   -97.858429,   60.8072586,  -30.7032814
    108,  -102.035789,   60.8072586,  -10.3760252
    109,  -102.035789,   60.8072586,   10.3760252
    110,   -97.858429,   60.8072586,   30.7032814
    111,   -89.674736,   60.8072586,   49.7735405
    112,  -77.8197479,   60.8072586,   66.8060608
    113,  -62.7788124,   60.8072586,   81.1035385
    114,  -45.1677055,   60.8072586,   92.0806274
    115,  -25.7074242,   60.8072586,   99.2879257
    116,  -5.19468021,   60.8072586,   102.430359
    117,    15.530736,   60.8072586,   101.379288
    118,   35.6203232,   60.8072586,   96.1777344
    119,    54.251606,   60.8072586,   87.0386505
    120,   70.6618271,   60.8072586,   74.3361969
    121,   84.1791382,   60.8072586,   58.5904121
    122,   94.2501526,   60.8072586,   40.4459267
    123,   100.462547,   60.8072586,   20.6455784
    124,   102.561996,   60.8072586,           0.
    125,   100.462547,   81.0763397,  -20.6455784
    126,   94.2501526,   81.0763397,  -40.4459267
    127,   84.1791382,   81.0763397,  -58.5904121
    128,   70.6618271,   81.0763397,  -74.3361969
    129,    54.251606,   81.0763397,  -87.0386505
    130,   35.6203232,   81.0763397,  -96.1777344
    131,    15.530736,   81.0763397,  -101.379288
    132,  -5.19468021,   81.0763397,  -102.430359
    133,  -25.7074242,   81.0763397,  -99.2879257
    134,  -45.1677055,   81.0763397,  -92.0806274
    135,  -62.7788124,   81.0763397,  -81.1035385
    136,  -77.8197479,   81.0763397,  -66.8060608
    137,   -89.674736,   81.0763397,  -49.7735405
    138,   -97.858429,   81.0763397,  -30.7032814
    139,  -102.035789,   81.0763397,  -10.3760252
    140,  -102.035789,   81.0763397,   10.3760252
    141,   -97.858429,   81.0763397,   30.7032814
    142,   -89.674736,   81.0763397,   49.7735405
    143,  -77.8197479,   81.0763397,   66.8060608
    144,  -62.7788124,   81.0763397,   81.1035385
    145,  -45.1677055,   81.0763397,   92.0806274
    146,  -25.7074242,   81.0763397,   99.2879257
    147,  -5.19468021,   81.0763397,   102.430359
    148,    15.530736,   81.0763397,   101.379288
    149,   35.6203232,   81.0763397,   96.1777344
    150,    54.251606,   81.0763397,   87.0386505
    151,   70.6618271,   81.0763397,   74.3361969
    152,   84.1791382,   81.0763397,   58.5904121
    153,   94.2501526,   81.0763397,   40.4459267
    154,   100.462547,   81.0763397,   20.6455784
    155,   102.561996,   81.0763397,           0.
    156,   100.462547,   101.345428,  -20.6455784
    157,   94.2501526,   101.345428,  -40.4459267
    158,   84.1791382,   101.345428,  -58.5904121
    159,   70.6618271,   101.345428,  -74.3361969
    160,    54.251606,   101.345428,  -87.0386505
    161,   35.6203232,   101.345428,  -96.1777344
    162,    15.530736,   101.345428,  -101.379288
    163,  -5.19468021,   101.345428,  -102.430359
    164,  -25.7074242,   101.345428,  -99.2879257
    165,  -45.1677055,   101.345428,  -92.0806274
    166,  -62.7788124,   101.345428,  -81.1035385
    167,  -77.8197479,   101.345428,  -66.8060608
    168,   -89.674736,   101.345428,  -49.7735405
    169,   -97.858429,   101.345428,  -30.7032814
    170,  -102.035789,   101.345428,  -10.3760252
    171,  -102.035789,   101.345428,   10.3760252
    172,   -97.858429,   101.345428,   30.7032814
    173,   -89.674736,   101.345428,   49.7735405
    174,  -77.8197479,   101.345428,   66.8060608
    175,  -62.7788124,   101.345428,   81.1035385
    176,  -45.1677055,   101.345428,   92.0806274
    177,  -25.7074242,   101.345428,   99.2879257
    178,  -5.19468021,   101.345428,   102.430359
    179,    15.530736,   101.345428,   101.379288
    180,   35.6203232,   101.345428,   96.1777344
    181,    54.251606,   101.345428,   87.0386505
    182,   70.6618271,   101.345428,   74.3361969
    183,   84.1791382,   101.345428,   58.5904121
    184,   94.2501526,   101.345428,   40.4459267
    185,   100.462547,   101.345428,   20.6455784
    186,   102.561996,   101.345428,           0.
    187,   100.462547,   121.614517,  -20.6455784
    188,   94.2501526,   121.614517,  -40.4459267
    189,   84.1791382,   121.614517,  -58.5904121
    190,   70.6618271,   121.614517,  -74.3361969
    191,    54.251606,   121.614517,  -87.0386505
    192,   35.6203232,   121.614517,  -96.1777344
    193,    15.530736,   121.614517,  -101.379288
    194,  -5.19468021,   121.614517,  -102.430359
    195,  -25.7074242,   121.614517,  -99.2879257
    196,  -45.1677055,   121.614517,  -92.0806274
    197,  -62.7788124,   121.614517,  -81.1035385
    198,  -77.8197479,   121.614517,  -66.8060608
    199,   -89.674736,   121.614517,  -49.7735405
    200,   -97.858429,   121.614517,  -30.7032814
    201,  -102.035789,   121.614517,  -10.3760252
    202,  -102.035789,   121.614517,   10.3760252
    203,   -97.858429,   121.614517,   30.7032814
    204,   -89.674736,   121.614517,   49.7735405
    205,  -77.8197479,   121.614517,   66.8060608
    206,  -62.7788124,   121.614517,   81.1035385
    207,  -45.1677055,   121.614517,   92.0806274
    208,  -25.7074242,   121.614517,   99.2879257
    209,  -5.19468021,   121.614517,   102.430359
    210,    15.530736,   121.614517,   101.379288
    211,   35.6203232,   121.614517,   96.1777344
    212,    54.251606,   121.614517,   87.0386505
    213,   70.6618271,   121.614517,   74.3361969
    214,   84.1791382,   121.614517,   58.5904121
    215,   94.2501526,   121.614517,   40.4459267
    216,   100.462547,   121.614517,   20.6455784
    217,   102.561996,   121.614517,           0.
    218,   100.462547,   141.883606,  -20.6455784
    219,   94.2501526,   141.883606,  -40.4459267
    220,   84.1791382,   141.883606,  -58.5904121
    221,   70.6618271,   141.883606,  -74.3361969
    222,    54.251606,   141.883606,  -87.0386505
    223,   35.6203232,   141.883606,  -96.1777344
    224,    15.530736,   141.883606,  -101.379288
    225,  -5.19468021,   141.883606,  -102.430359
    226,  -25.7074242,   141.883606,  -99.2879257
    227,  -45.1677055,   141.883606,  -92.0806274
    228,  -62.7788124,   141.883606,  -81.1035385
    229,  -77.8197479,   141.883606,  -66.8060608
    230,   -89.674736,   141.883606,  -49.7735405
    231,   -97.858429,   141.883606,  -30.7032814
    232,  -102.035789,   141.883606,  -10.3760252
    233,  -102.035789,   141.883606,   10.3760252
    234,   -97.858429,   141.883606,   30.7032814
    235,   -89.674736,   141.883606,   49.7735405
    236,  -77.8197479,   141.883606,   66.8060608
    237,  -62.7788124,   141.883606,   81.1035385
    238,  -45.1677055,   141.883606,   92.0806274
    239,  -25.7074242,   141.883606,   99.2879257
    240,  -5.19468021,   141.883606,   102.430359
    241,    15.530736,   141.883606,   101.379288
    242,   35.6203232,   141.883606,   96.1777344
    243,    54.251606,   141.883606,   87.0386505
    244,   70.6618271,   141.883606,   74.3361969
    245,   84.1791382,   141.883606,   58.5904121
    246,   94.2501526,   141.883606,   40.4459267
    247,   100.462547,   141.883606,   20.6455784
    248,   102.561996,   141.883606,           0.
    249,   100.462547,   162.152679,  -20.6455784
    250,   94.2501526,   162.152679,  -40.4459267
    251,   84.1791382,   162.152679,  -58.5904121
    252,   70.6618271,   162.152679,  -74.3361969
    253,    54.251606,   162.152679,  -87.0386505
    254,   35.6203232,   162.152679,  -96.1777344
    255,    15.530736,   162.152679,  -101.379288
    256,  -5.19468021,   162.152679,  -102.430359
    257,  -25.7074242,   162.152679,  -99.2879257
    258,  -45.1677055,   162.152679,  -92.0806274
    259,  -62.7788124,   162.152679,  -81.1035385
    260,  -77.8197479,   162.152679,  -66.8060608
    261,   -89.674736,   162.152679,  -49.7735405
    262,   -97.858429,   162.152679,  -30.7032814
    263,  -102.035789,   162.152679,  -10.3760252
    264,  -102.035789,   162.152679,   10.3760252
    265,   -97.858429,   162.152679,   30.7032814
    266,   -89.674736,   162.152679,   49.7735405
    267,  -77.8197479,   162.152679,   66.8060608
    268,  -62.7788124,   162.152679,   81.1035385
    269,  -45.1677055,   162.152679,   92.0806274
    270,  -25.7074242,   162.152679,   99.2879257
    271,  -5.19468021,   162.152679,   102.430359
    272,    15.530736,   162.152679,   101.379288
    273,   35.6203232,   162.152679,   96.1777344
    274,    54.251606,   162.152679,   87.0386505
    275,   70.6618271,   162.152679,   74.3361969
    276,   84.1791382,   162.152679,   58.5904121
    277,   94.2501526,   162.152679,   40.4459267
    278,   100.462547,   162.152679,   20.6455784
    279,   102.561996,   162.152679,           0.
    280,   100.462547,   182.421768,  -20.6455784
    281,   94.2501526,   182.421768,  -40.4459267
    282,   84.1791382,   182.421768,  -58.5904121
    283,   70.6618271,   182.421768,  -74.3361969
    284,    54.251606,   182.421768,  -87.0386505
    285,   35.6203232,   182.421768,  -96.1777344
    286,    15.530736,   182.421768,  -101.379288
    287,  -5.19468021,   182.421768,  -102.430359
    288,  -25.7074242,   182.421768,  -99.2879257
    289,  -45.1677055,   182.421768,  -92.0806274
    290,  -62.7788124,   182.421768,  -81.1035385
    291,  -77.8197479,   182.421768,  -66.8060608
    292,   -89.674736,   182.421768,  -49.7735405
    293,   -97.858429,   182.421768,  -30.7032814
    294,  -102.035789,   182.421768,  -10.3760252
    295,  -102.035789,   182.421768,   10.3760252
    296,   -97.858429,   182.421768,   30.7032814
    297,   -89.674736,   182.421768,   49.7735405
    298,  -77.8197479,   182.421768,   66.8060608
    299,  -62.7788124,   182.421768,   81.1035385
    300,  -45.1677055,   182.421768,   92.0806274
    301,  -25.7074242,   182.421768,   99.2879257
    302,  -5.19468021,   182.421768,   102.430359
    303,    15.530736,   182.421768,   101.379288
    304,   35.6203232,   182.421768,   96.1777344
    305,    54.251606,   182.421768,   87.0386505
    306,   70.6618271,   182.421768,   74.3361969
    307,   84.1791382,   182.421768,   58.5904121
    308,   94.2501526,   182.421768,   40.4459267
    309,   100.462547,   182.421768,   20.6455784
    310,   102.561996,   182.421768,           0.
    311,   100.462547,   202.690857,  -20.6455784
    312,   94.2501526,   202.690857,  -40.4459267
    313,   84.1791382,   202.690857,  -58.5904121
    314,   70.6618271,   202.690857,  -74.3361969
    315,    54.251606,   202.690857,  -87.0386505
    316,   35.6203232,   202.690857,  -96.1777344
    317,    15.530736,   202.690857,  -101.379288
    318,  -5.19468021,   202.690857,  -102.430359
    319,  -25.7074242,   202.690857,  -99.2879257
    320,  -45.1677055,   202.690857,  -92.0806274
    321,  -62.7788124,   202.690857,  -81.1035385
    322,  -77.8197479,   202.690857,  -66.8060608
    323,   -89.674736,   202.690857,  -49.7735405
    324,   -97.858429,   202.690857,  -30.7032814
    325,  -102.035789,   202.690857,  -10.3760252
    326,  -102.035789,   202.690857,   10.3760252
    327,   -97.858429,   202.690857,   30.7032814
    328,   -89.674736,   202.690857,   49.7735405
    329,  -77.8197479,   202.690857,   66.8060608
    330,  -62.7788124,   202.690857,   81.1035385
    331,  -45.1677055,   202.690857,   92.0806274
    332,  -25.7074242,   202.690857,   99.2879257
    333,  -5.19468021,   202.690857,   102.430359
    334,    15.530736,   202.690857,   101.379288
    335,   35.6203232,   202.690857,   96.1777344
    336,    54.251606,   202.690857,   87.0386505
    337,   70.6618271,   202.690857,   74.3361969
    338,   84.1791382,   202.690857,   58.5904121
    339,   94.2501526,   202.690857,   40.4459267
    340,   100.462547,   202.690857,   20.6455784
    341,   102.561996,   202.690857,           0.
    342,   100.462547,   222.959946,  -20.6455784
    343,   94.2501526,   222.959946,  -40.4459267
    344,   84.1791382,   222.959946,  -58.5904121
    345,   70.6618271,   222.959946,  -74.3361969
    346,    54.251606,   222.959946,  -87.0386505
    347,   35.6203232,   222.959946,  -96.1777344
    348,    15.530736,   222.959946,  -101.379288
    349,  -5.19468021,   222.959946,  -102.430359
    350,  -25.7074242,   222.959946,  -99.2879257
    351,  -45.1677055,   222.959946,  -92.0806274
    352,  -62.7788124,   222.959946,  -81.1035385
    353,  -77.8197479,   222.959946,  -66.8060608
    354,   -89.674736,   222.959946,  -49.7735405
    355,   -97.858429,   222.959946,  -30.7032814
    356,  -102.035789,   222.959946,  -10.3760252
    357,  -102.035789,   222.959946,   10.3760252
    358,   -97.858429,   222.959946,   30.7032814
    359,   -89.674736,   222.959946,   49.7735405
    360,  -77.8197479,   222.959946,   66.8060608
    361,  -62.7788124,   222.959946,   81.1035385
    362,  -45.1677055,   222.959946,   92.0806274
    363,  -25.7074242,   222.959946,   99.2879257
    364,  -5.19468021,   222.959946,   102.430359
    365,    15.530736,   222.959946,   101.379288
    366,   35.6203232,   222.959946,   96.1777344
    367,    54.251606,   222.959946,   87.0386505
    368,   70.6618271,   222.959946,   74.3361969
    369,   84.1791382,   222.959946,   58.5904121
    370,   94.2501526,   222.959946,   40.4459267
    371,   100.462547,   222.959946,   20.6455784
    372,   102.561996,   222.959946,           0.
    373,   100.462547,   243.229034,  -20.6455784
    374,   94.2501526,   243.229034,  -40.4459267
    375,   84.1791382,   243.229034,  -58.5904121
    376,   70.6618271,   243.229034,  -74.3361969
    377,    54.251606,   243.229034,  -87.0386505
    378,   35.6203232,   243.229034,  -96.1777344
    379,    15.530736,   243.229034,  -101.379288
    380,  -5.19468021,   243.229034,  -102.430359
    381,  -25.7074242,   243.229034,  -99.2879257
    382,  -45.1677055,   243.229034,  -92.0806274
    383,  -62.7788124,   243.229034,  -81.1035385
    384,  -77.8197479,   243.229034,  -66.8060608
    385,   -89.674736,   243.229034,  -49.7735405
    386,   -97.858429,   243.229034,  -30.7032814
    387,  -102.035789,   243.229034,  -10.3760252
    388,  -102.035789,   243.229034,   10.3760252
    389,   -97.858429,   243.229034,   30.7032814
    390,   -89.674736,   243.229034,   49.7735405
    391,  -77.8197479,   243.229034,   66.8060608
    392,  -62.7788124,   243.229034,   81.1035385
    393,  -45.1677055,   243.229034,   92.0806274
    394,  -25.7074242,   243.229034,   99.2879257
    395,  -5.19468021,   243.229034,   102.430359
    396,    15.530736,   243.229034,   101.379288
    397,   35.6203232,   243.229034,   96.1777344
    398,    54.251606,   243.229034,   87.0386505
    399,   70.6618271,   243.229034,   74.3361969
    400,   84.1791382,   243.229034,   58.5904121
    401,   94.2501526,   243.229034,   40.4459267
    402,   100.462547,   243.229034,   20.6455784
    403,   102.561996,   243.229034,           0.
    404,   100.462547,   263.498108,  -20.6455784
    405,   94.2501526,   263.498108,  -40.4459267
    406,   84.1791382,   263.498108,  -58.5904121
    407,   70.6618271,   263.498108,  -74.3361969
    408,    54.251606,   263.498108,  -87.0386505
    409,   35.6203232,   263.498108,  -96.1777344
    410,    15.530736,   263.498108,  -101.379288
    411,  -5.19468021,   263.498108,  -102.430359
    412,  -25.7074242,   263.498108,  -99.2879257
    413,  -45.1677055,   263.498108,  -92.0806274
    414,  -62.7788124,   263.498108,  -81.1035385
    415,  -77.8197479,   263.498108,  -66.8060608
    416,   -89.674736,   263.498108,  -49.7735405
    417,   -97.858429,   263.498108,  -30.7032814
    418,  -102.035789,   263.498108,  -10.3760252
    419,  -102.035789,   263.498108,   10.3760252
    420,   -97.858429,   263.498108,   30.7032814
    421,   -89.674736,   263.498108,   49.7735405
    422,  -77.8197479,   263.498108,   66.8060608
    423,  -62.7788124,   263.498108,   81.1035385
    424,  -45.1677055,   263.498108,   92.0806274
    425,  -25.7074242,   263.498108,   99.2879257
    426,  -5.19468021,   263.498108,   102.430359
    427,    15.530736,   263.498108,   101.379288
    428,   35.6203232,   263.498108,   96.1777344
    429,    54.251606,   263.498108,   87.0386505
    430,   70.6618271,   263.498108,   74.3361969
    431,   84.1791382,   263.498108,   58.5904121
    432,   94.2501526,   263.498108,   40.4459267
    433,   100.462547,   263.498108,   20.6455784
    434,   102.561996,   263.498108,           0.
    435,   100.462547,   283.767212,  -20.6455784
    436,   94.2501526,   283.767212,  -40.4459267
    437,   84.1791382,   283.767212,  -58.5904121
    438,   70.6618271,   283.767212,  -74.3361969
    439,    54.251606,   283.767212,  -87.0386505
    440,   35.6203232,   283.767212,  -96.1777344
    441,    15.530736,   283.767212,  -101.379288
    442,  -5.19468021,   283.767212,  -102.430359
    443,  -25.7074242,   283.767212,  -99.2879257
    444,  -45.1677055,   283.767212,  -92.0806274
    445,  -62.7788124,   283.767212,  -81.1035385
    446,  -77.8197479,   283.767212,  -66.8060608
    447,   -89.674736,   283.767212,  -49.7735405
    448,   -97.858429,   283.767212,  -30.7032814
    449,  -102.035789,   283.767212,  -10.3760252
    450,  -102.035789,   283.767212,   10.3760252
    451,   -97.858429,   283.767212,   30.7032814
    452,   -89.674736,   283.767212,   49.7735405
    453,  -77.8197479,   283.767212,   66.8060608
    454,  -62.7788124,   283.767212,   81.1035385
    455,  -45.1677055,   283.767212,   92.0806274
    456,  -25.7074242,   283.767212,   99.2879257
    457,  -5.19468021,   283.767212,   102.430359
    458,    15.530736,   283.767212,   101.379288
    459,   35.6203232,   283.767212,   96.1777344
    460,    54.251606,   283.767212,   87.0386505
    461,   70.6618271,   283.767212,   74.3361969
    462,   84.1791382,   283.767212,   58.5904121
    463,   94.2501526,   283.767212,   40.4459267
    464,   100.462547,   283.767212,   20.6455784
    465,   102.561996,   283.767212,           0.
    466,   100.462547,   304.036285,  -20.6455784
    467,   94.2501526,   304.036285,  -40.4459267
    468,   84.1791382,   304.036285,  -58.5904121
    469,   70.6618271,   304.036285,  -74.3361969
    470,    54.251606,   304.036285,  -87.0386505
    471,   35.6203232,   304.036285,  -96.1777344
    472,    15.530736,   304.036285,  -101.379288
    473,  -5.19468021,   304.036285,  -102.430359
    474,  -25.7074242,   304.036285,  -99.2879257
    475,  -45.1677055,   304.036285,  -92.0806274
    476,  -62.7788124,   304.036285,  -81.1035385
    477,  -77.8197479,   304.036285,  -66.8060608
    478,   -89.674736,   304.036285,  -49.7735405
    479,   -97.858429,   304.036285,  -30.7032814
    480,  -102.035789,   304.036285,  -10.3760252
    481,  -102.035789,   304.036285,   10.3760252
    482,   -97.858429,   304.036285,   30.7032814
    483,   -89.674736,   304.036285,   49.7735405
    484,  -77.8197479,   304.036285,   66.8060608
    485,  -62.7788124,   304.036285,   81.1035385
    486,  -45.1677055,   304.036285,   92.0806274
    487,  -25.7074242,   304.036285,   99.2879257
    488,  -5.19468021,   304.036285,   102.430359
    489,    15.530736,   304.036285,   101.379288
    490,   35.6203232,   304.036285,   96.1777344
    491,    54.251606,   304.036285,   87.0386505
    492,   70.6618271,   304.036285,   74.3361969
    493,   84.1791382,   304.036285,   58.5904121
    494,   94.2501526,   304.036285,   40.4459267
    495,   100.462547,   304.036285,   20.6455784
    496,   102.561996,   304.036285,           0.
    497,   100.462547,   324.305359,  -20.6455784
    498,   94.2501526,   324.305359,  -40.4459267
    499,   84.1791382,   324.305359,  -58.5904121
    500,   70.6618271,   324.305359,  -74.3361969
    501,    54.251606,   324.305359,  -87.0386505
    502,   35.6203232,   324.305359,  -96.1777344
    503,    15.530736,   324.305359,  -101.379288
    504,  -5.19468021,   324.305359,  -102.430359
    505,  -25.7074242,   324.305359,  -99.2879257
    506,  -45.1677055,   324.305359,  -92.0806274
    507,  -62.7788124,   324.305359,  -81.1035385
    508,  -77.8197479,   324.305359,  -66.8060608
    509,   -89.674736,   324.305359,  -49.7735405
    510,   -97.858429,   324.305359,  -30.7032814
    511,  -102.035789,   324.305359,  -10.3760252
    512,  -102.035789,   324.305359,   10.3760252
    513,   -97.858429,   324.305359,   30.7032814
    514,   -89.674736,   324.305359,   49.7735405
    515,  -77.8197479,   324.305359,   66.8060608
    516,  -62.7788124,   324.305359,   81.1035385
    517,  -45.1677055,   324.305359,   92.0806274
    518,  -25.7074242,   324.305359,   99.2879257
    519,  -5.19468021,   324.305359,   102.430359
    520,    15.530736,   324.305359,   101.379288
    521,   35.6203232,   324.305359,   96.1777344
    522,    54.251606,   324.305359,   87.0386505
    523,   70.6618271,   324.305359,   74.3361969
    524,   84.1791382,   324.305359,   58.5904121
    525,   94.2501526,   324.305359,   40.4459267
    526,   100.462547,   324.305359,   20.6455784
    527,   102.561996,   324.305359,           0.
    528,   100.462547,   344.574463,  -20.6455784
    529,   94.2501526,   344.574463,  -40.4459267
    530,   84.1791382,   344.574463,  -58.5904121
    531,   70.6618271,   344.574463,  -74.3361969
    532,    54.251606,   344.574463,  -87.0386505
    533,   35.6203232,   344.574463,  -96.1777344
    534,    15.530736,   344.574463,  -101.379288
    535,  -5.19468021,   344.574463,  -102.430359
    536,  -25.7074242,   344.574463,  -99.2879257
    537,  -45.1677055,   344.574463,  -92.0806274
    538,  -62.7788124,   344.574463,  -81.1035385
    539,  -77.8197479,   344.574463,  -66.8060608
    540,   -89.674736,   344.574463,  -49.7735405
    541,   -97.858429,   344.574463,  -30.7032814
    542,  -102.035789,   344.574463,  -10.3760252
    543,  -102.035789,   344.574463,   10.3760252
    544,   -97.858429,   344.574463,   30.7032814
    545,   -89.674736,   344.574463,   49.7735405
    546,  -77.8197479,   344.574463,   66.8060608
    547,  -62.7788124,   344.574463,   81.1035385
    548,  -45.1677055,   344.574463,   92.0806274
    549,  -25.7074242,   344.574463,   99.2879257
    550,  -5.19468021,   344.574463,   102.430359
    551,    15.530736,   344.574463,   101.379288
    552,   35.6203232,   344.574463,   96.1777344
    553,    54.251606,   344.574463,   87.0386505
    554,   70.6618271,   344.574463,   74.3361969
    555,   84.1791382,   344.574463,   58.5904121
    556,   94.2501526,   344.574463,   40.4459267
    557,   100.462547,   344.574463,   20.6455784
    558,   102.561996,   344.574463,           0.
    559,   100.462547,   364.843536,  -20.6455784
    560,   94.2501526,   364.843536,  -40.4459267
    561,   84.1791382,   364.843536,  -58.5904121
    562,   70.6618271,   364.843536,  -74.3361969
    563,    54.251606,   364.843536,  -87.0386505
    564,   35.6203232,   364.843536,  -96.1777344
    565,    15.530736,   364.843536,  -101.379288
    566,  -5.19468021,   364.843536,  -102.430359
    567,  -25.7074242,   364.843536,  -99.2879257
    568,  -45.1677055,   364.843536,  -92.0806274
    569,  -62.7788124,   364.843536,  -81.1035385
    570,  -77.8197479,   364.843536,  -66.8060608
    571,   -89.674736,   364.843536,  -49.7735405
    572,   -97.858429,   364.843536,  -30.7032814
    573,  -102.035789,   364.843536,  -10.3760252
    574,  -102.035789,   364.843536,   10.3760252
    575,   -97.858429,   364.843536,   30.7032814
    576,   -89.674736,   364.843536,   49.7735405
    577,  -77.8197479,   364.843536,   66.8060608
    578,  -62.7788124,   364.843536,   81.1035385
    579,  -45.1677055,   364.843536,   92.0806274
    580,  -25.7074242,   364.843536,   99.2879257
    581,  -5.19468021,   364.843536,   102.430359
    582,    15.530736,   364.843536,   101.379288
    583,   35.6203232,   364.843536,   96.1777344
    584,    54.251606,   364.843536,   87.0386505
    585,   70.6618271,   364.843536,   74.3361969
    586,   84.1791382,   364.843536,   58.5904121
    587,   94.2501526,   364.843536,   40.4459267
    588,   100.462547,   364.843536,   20.6455784
    589,   102.561996,   364.843536,           0.
    590,   100.462547,    385.11264,  -20.6455784
    591,   94.2501526,    385.11264,  -40.4459267
    592,   84.1791382,    385.11264,  -58.5904121
    593,   70.6618271,    385.11264,  -74.3361969
    594,    54.251606,    385.11264,  -87.0386505
    595,   35.6203232,    385.11264,  -96.1777344
    596,    15.530736,    385.11264,  -101.379288
    597,  -5.19468021,    385.11264,  -102.430359
    598,  -25.7074242,    385.11264,  -99.2879257
    599,  -45.1677055,    385.11264,  -92.0806274
    600,  -62.7788124,    385.11264,  -81.1035385
    601,  -77.8197479,    385.11264,  -66.8060608
    602,   -89.674736,    385.11264,  -49.7735405
    603,   -97.858429,    385.11264,  -30.7032814
    604,  -102.035789,    385.11264,  -10.3760252
    605,  -102.035789,    385.11264,   10.3760252
    606,   -97.858429,    385.11264,   30.7032814
    607,   -89.674736,    385.11264,   49.7735405
    608,  -77.8197479,    385.11264,   66.8060608
    609,  -62.7788124,    385.11264,   81.1035385
    610,  -45.1677055,    385.11264,   92.0806274
    611,  -25.7074242,    385.11264,   99.2879257
    612,  -5.19468021,    385.11264,   102.430359
    613,    15.530736,    385.11264,   101.379288
    614,   35.6203232,    385.11264,   96.1777344
    615,    54.251606,    385.11264,   87.0386505
    616,   70.6618271,    385.11264,   74.3361969
    617,   84.1791382,    385.11264,   58.5904121
    618,   94.2501526,    385.11264,   40.4459267
    619,   100.462547,    385.11264,   20.6455784
    620,   102.561996,    385.11264,           0.
    621,   100.462547,   405.381714,  -20.6455784
    622,   94.2501526,   405.381714,  -40.4459267
    623,   84.1791382,   405.381714,  -58.5904121
    624,   70.6618271,   405.381714,  -74.3361969
    625,    54.251606,   405.381714,  -87.0386505
    626,   35.6203232,   405.381714,  -96.1777344
    627,    15.530736,   405.381714,  -101.379288
    628,  -5.19468021,   405.381714,  -102.430359
    629,  -25.7074242,   405.381714,  -99.2879257
    630,  -45.1677055,   405.381714,  -92.0806274
    631,  -62.7788124,   405.381714,  -81.1035385
    632,  -77.8197479,   405.381714,  -66.8060608
    633,   -89.674736,   405.381714,  -49.7735405
    634,   -97.858429,   405.381714,  -30.7032814
    635,  -102.035789,   405.381714,  -10.3760252
    636,  -102.035789,   405.381714,   10.3760252
    637,   -97.858429,   405.381714,   30.7032814
    638,   -89.674736,   405.381714,   49.7735405
    639,  -77.8197479,   405.381714,   66.8060608
    640,  -62.7788124,   405.381714,   81.1035385
    641,  -45.1677055,   405.381714,   92.0806274
    642,  -25.7074242,   405.381714,   99.2879257
    643,  -5.19468021,   405.381714,   102.430359
    644,    15.530736,   405.381714,   101.379288
    645,   35.6203232,   405.381714,   96.1777344
    646,    54.251606,   405.381714,   87.0386505
    647,   70.6618271,   405.381714,   74.3361969
    648,   84.1791382,   405.381714,   58.5904121
    649,   94.2501526,   405.381714,   40.4459267
    650,   100.462547,   405.381714,   20.6455784
    651,   102.561996,   405.381714,           0.
    652,   100.462547,   425.650787,  -20.6455784
    653,   94.2501526,   425.650787,  -40.4459267
    654,   84.1791382,   425.650787,  -58.5904121
    655,   70.6618271,   425.650787,  -74.3361969
    656,    54.251606,   425.650787,  -87.0386505
    657,   35.6203232,   425.650787,  -96.1777344
    658,    15.530736,   425.650787,  -101.379288
    659,  -5.19468021,   425.650787,  -102.430359
    660,  -25.7074242,   425.650787,  -99.2879257
    661,  -45.1677055,   425.650787,  -92.0806274
    662,  -62.7788124,   425.650787,  -81.1035385
    663,  -77.8197479,   425.650787,  -66.8060608
    664,   -89.674736,   425.650787,  -49.7735405
    665,   -97.858429,   425.650787,  -30.7032814
    666,  -102.035789,   425.650787,  -10.3760252
    667,  -102.035789,   425.650787,   10.3760252
    668,   -97.858429,   425.650787,   30.7032814
    669,   -89.674736,   425.650787,   49.7735405
    670,  -77.8197479,   425.650787,   66.8060608
    671,  -62.7788124,   425.650787,   81.1035385
    672,  -45.1677055,   425.650787,   92.0806274
    673,  -25.7074242,   425.650787,   99.2879257
    674,  -5.19468021,   425.650787,   102.430359
    675,    15.530736,   425.650787,   101.379288
    676,   35.6203232,   425.650787,   96.1777344
    677,    54.251606,   425.650787,   87.0386505
    678,   70.6618271,   425.650787,   74.3361969
    679,   84.1791382,   425.650787,   58.5904121
    680,   94.2501526,   425.650787,   40.4459267
    681,   100.462547,   425.650787,   20.6455784
    682,   102.561996,   425.650787,           0.
    683,   100.462547,   445.919891,  -20.6455784
    684,   94.2501526,   445.919891,  -40.4459267
    685,   84.1791382,   445.919891,  -58.5904121
    686,   70.6618271,   445.919891,  -74.3361969
    687,    54.251606,   445.919891,  -87.0386505
    688,   35.6203232,   445.919891,  -96.1777344
    689,    15.530736,   445.919891,  -101.379288
    690,  -5.19468021,   445.919891,  -102.430359
    691,  -25.7074242,   445.919891,  -99.2879257
    692,  -45.1677055,   445.919891,  -92.0806274
    693,  -62.7788124,   445.919891,  -81.1035385
    694,  -77.8197479,   445.919891,  -66.8060608
    695,   -89.674736,   445.919891,  -49.7735405
    696,   -97.858429,   445.919891,  -30.7032814
    697,  -102.035789,   445.919891,  -10.3760252
    698,  -102.035789,   445.919891,   10.3760252
    699,   -97.858429,   445.919891,   30.7032814
    700,   -89.674736,   445.919891,   49.7735405
    701,  -77.8197479,   445.919891,   66.8060608
    702,  -62.7788124,   445.919891,   81.1035385
    703,  -45.1677055,   445.919891,   92.0806274
    704,  -25.7074242,   445.919891,   99.2879257
    705,  -5.19468021,   445.919891,   102.430359
    706,    15.530736,   445.919891,   101.379288
    707,   35.6203232,   445.919891,   96.1777344
    708,    54.251606,   445.919891,   87.0386505
    709,   70.6618271,   445.919891,   74.3361969
    710,   84.1791382,   445.919891,   58.5904121
    711,   94.2501526,   445.919891,   40.4459267
    712,   100.462547,   445.919891,   20.6455784
    713,   102.561996,   445.919891,           0.
    714,   100.462547,   466.188965,  -20.6455784
    715,   94.2501526,   466.188965,  -40.4459267
    716,   84.1791382,   466.188965,  -58.5904121
    717,   70.6618271,   466.188965,  -74.3361969
    718,    54.251606,   466.188965,  -87.0386505
    719,   35.6203232,   466.188965,  -96.1777344
    720,    15.530736,   466.188965,  -101.379288
    721,  -5.19468021,   466.188965,  -102.430359
    722,  -25.7074242,   466.188965,  -99.2879257
    723,  -45.1677055,   466.188965,  -92.0806274
    724,  -62.7788124,   466.188965,  -81.1035385
    725,  -77.8197479,   466.188965,  -66.8060608
    726,   -89.674736,   466.188965,  -49.7735405
    727,   -97.858429,   466.188965,  -30.7032814
    728,  -102.035789,   466.188965,  -10.3760252
    729,  -102.035789,   466.188965,   10.3760252
    730,   -97.858429,   466.188965,   30.7032814
    731,   -89.674736,   466.188965,   49.7735405
    732,  -77.8197479,   466.188965,   66.8060608
    733,  -62.7788124,   466.188965,   81.1035385
    734,  -45.1677055,   466.188965,   92.0806274
    735,  -25.7074242,   466.188965,   99.2879257
    736,  -5.19468021,   466.188965,   102.430359
    737,    15.530736,   466.188965,   101.379288
    738,   35.6203232,   466.188965,   96.1777344
    739,    54.251606,   466.188965,   87.0386505
    740,   70.6618271,   466.188965,   74.3361969
    741,   84.1791382,   466.188965,   58.5904121
    742,   94.2501526,   466.188965,   40.4459267
    743,   100.462547,   466.188965,   20.6455784
    744,   102.561996,   466.188965,           0.
    745,   100.462547,   486.458069,  -20.6455784
    746,   94.2501526,   486.458069,  -40.4459267
    747,   84.1791382,   486.458069,  -58.5904121
    748,   70.6618271,   486.458069,  -74.3361969
    749,    54.251606,   486.458069,  -87.0386505
    750,   35.6203232,   486.458069,  -96.1777344
    751,    15.530736,   486.458069,  -101.379288
    752,  -5.19468021,   486.458069,  -102.430359
    753,  -25.7074242,   486.458069,  -99.2879257
    754,  -45.1677055,   486.458069,  -92.0806274
    755,  -62.7788124,   486.458069,  -81.1035385
    756,  -77.8197479,   486.458069,  -66.8060608
    757,   -89.674736,   486.458069,  -49.7735405
    758,   -97.858429,   486.458069,  -30.7032814
    759,  -102.035789,   486.458069,  -10.3760252
    760,  -102.035789,   486.458069,   10.3760252
    761,   -97.858429,   486.458069,   30.7032814
    762,   -89.674736,   486.458069,   49.7735405
    763,  -77.8197479,   486.458069,   66.8060608
    764,  -62.7788124,   486.458069,   81.1035385
    765,  -45.1677055,   486.458069,   92.0806274
    766,  -25.7074242,   486.458069,   99.2879257
    767,  -5.19468021,   486.458069,   102.430359
    768,    15.530736,   486.458069,   101.379288
    769,   35.6203232,   486.458069,   96.1777344
    770,    54.251606,   486.458069,   87.0386505
    771,   70.6618271,   486.458069,   74.3361969
    772,   84.1791382,   486.458069,   58.5904121
    773,   94.2501526,   486.458069,   40.4459267
    774,   100.462547,   486.458069,   20.6455784
    775,   102.561996,   486.458069,           0.
    776,   100.462547,   506.727142,  -20.6455784
    777,   94.2501526,   506.727142,  -40.4459267
    778,   84.1791382,   506.727142,  -58.5904121
    779,   70.6618271,   506.727142,  -74.3361969
    780,    54.251606,   506.727142,  -87.0386505
    781,   35.6203232,   506.727142,  -96.1777344
    782,    15.530736,   506.727142,  -101.379288
    783,  -5.19468021,   506.727142,  -102.430359
    784,  -25.7074242,   506.727142,  -99.2879257
    785,  -45.1677055,   506.727142,  -92.0806274
    786,  -62.7788124,   506.727142,  -81.1035385
    787,  -77.8197479,   506.727142,  -66.8060608
    788,   -89.674736,   506.727142,  -49.7735405
    789,   -97.858429,   506.727142,  -30.7032814
    790,  -102.035789,   506.727142,  -10.3760252
    791,  -102.035789,   506.727142,   10.3760252
    792,   -97.858429,   506.727142,   30.7032814
    793,   -89.674736,   506.727142,   49.7735405
    794,  -77.8197479,   506.727142,   66.8060608
    795,  -62.7788124,   506.727142,   81.1035385
    796,  -45.1677055,   506.727142,   92.0806274
    797,  -25.7074242,   506.727142,   99.2879257
    798,  -5.19468021,   506.727142,   102.430359
    799,    15.530736,   506.727142,   101.379288
    800,   35.6203232,   506.727142,   96.1777344
    801,    54.251606,   506.727142,   87.0386505
    802,   70.6618271,   506.727142,   74.3361969
    803,   84.1791382,   506.727142,   58.5904121
    804,   94.2501526,   506.727142,   40.4459267
    805,   100.462547,   506.727142,   20.6455784
    806,   102.561996,   506.727142,           0.
    807,   100.462547,   526.996216,  -20.6455784
    808,   94.2501526,   526.996216,  -40.4459267
    809,   84.1791382,   526.996216,  -58.5904121
    810,   70.6618271,   526.996216,  -74.3361969
    811,    54.251606,   526.996216,  -87.0386505
    812,   35.6203232,   526.996216,  -96.1777344
    813,    15.530736,   526.996216,  -101.379288
    814,  -5.19468021,   526.996216,  -102.430359
    815,  -25.7074242,   526.996216,  -99.2879257
    816,  -45.1677055,   526.996216,  -92.0806274
    817,  -62.7788124,   526.996216,  -81.1035385
    818,  -77.8197479,   526.996216,  -66.8060608
    819,   -89.674736,   526.996216,  -49.7735405
    820,   -97.858429,   526.996216,  -30.7032814
    821,  -102.035789,   526.996216,  -10.3760252
    822,  -102.035789,   526.996216,   10.3760252
    823,   -97.858429,   526.996216,   30.7032814
    824,   -89.674736,   526.996216,   49.7735405
    825,  -77.8197479,   526.996216,   66.8060608
    826,  -62.7788124,   526.996216,   81.1035385
    827,  -45.1677055,   526.996216,   92.0806274
    828,  -25.7074242,   526.996216,   99.2879257
    829,  -5.19468021,   526.996216,   102.430359
    830,    15.530736,   526.996216,   101.379288
    831,   35.6203232,   526.996216,   96.1777344
    832,    54.251606,   526.996216,   87.0386505
    833,   70.6618271,   526.996216,   74.3361969
    834,   84.1791382,   526.996216,   58.5904121
    835,   94.2501526,   526.996216,   40.4459267
    836,   100.462547,   526.996216,   20.6455784
    837,   102.561996,   526.996216,           0.
    838,   100.462547,    547.26532,  -20.6455784
    839,   94.2501526,    547.26532,  -40.4459267
    840,   84.1791382,    547.26532,  -58.5904121
    841,   70.6618271,    547.26532,  -74.3361969
    842,    54.251606,    547.26532,  -87.0386505
    843,   35.6203232,    547.26532,  -96.1777344
    844,    15.530736,    547.26532,  -101.379288
    845,  -5.19468021,    547.26532,  -102.430359
    846,  -25.7074242,    547.26532,  -99.2879257
    847,  -45.1677055,    547.26532,  -92.0806274
    848,  -62.7788124,    547.26532,  -81.1035385
    849,  -77.8197479,    547.26532,  -66.8060608
    850,   -89.674736,    547.26532,  -49.7735405
    851,   -97.858429,    547.26532,  -30.7032814
    852,  -102.035789,    547.26532,  -10.3760252
    853,  -102.035789,    547.26532,   10.3760252
    854,   -97.858429,    547.26532,   30.7032814
    855,   -89.674736,    547.26532,   49.7735405
    856,  -77.8197479,    547.26532,   66.8060608
    857,  -62.7788124,    547.26532,   81.1035385
    858,  -45.1677055,    547.26532,   92.0806274
    859,  -25.7074242,    547.26532,   99.2879257
    860,  -5.19468021,    547.26532,   102.430359
    861,    15.530736,    547.26532,   101.379288
    862,   35.6203232,    547.26532,   96.1777344
    863,    54.251606,    547.26532,   87.0386505
    864,   70.6618271,    547.26532,   74.3361969
    865,   84.1791382,    547.26532,   58.5904121
    866,   94.2501526,    547.26532,   40.4459267
    867,   100.462547,    547.26532,   20.6455784
    868,   102.561996,    547.26532,           0.
    869,   100.462547,   567.534424,  -20.6455784
    870,   94.2501526,   567.534424,  -40.4459267
    871,   84.1791382,   567.534424,  -58.5904121
    872,   70.6618271,   567.534424,  -74.3361969
    873,    54.251606,   567.534424,  -87.0386505
    874,   35.6203232,   567.534424,  -96.1777344
    875,    15.530736,   567.534424,  -101.379288
    876,  -5.19468021,   567.534424,  -102.430359
    877,  -25.7074242,   567.534424,  -99.2879257
    878,  -45.1677055,   567.534424,  -92.0806274
    879,  -62.7788124,   567.534424,  -81.1035385
    880,  -77.8197479,   567.534424,  -66.8060608
    881,   -89.674736,   567.534424,  -49.7735405
    882,   -97.858429,   567.534424,  -30.7032814
    883,  -102.035789,   567.534424,  -10.3760252
    884,  -102.035789,   567.534424,   10.3760252
    885,   -97.858429,   567.534424,   30.7032814
    886,   -89.674736,   567.534424,   49.7735405
    887,  -77.8197479,   567.534424,   66.8060608
    888,  -62.7788124,   567.534424,   81.1035385
    889,  -45.1677055,   567.534424,   92.0806274
    890,  -25.7074242,   567.534424,   99.2879257
    891,  -5.19468021,   567.534424,   102.430359
    892,    15.530736,   567.534424,   101.379288
    893,   35.6203232,   567.534424,   96.1777344
    894,    54.251606,   567.534424,   87.0386505
    895,   70.6618271,   567.534424,   74.3361969
    896,   84.1791382,   567.534424,   58.5904121
    897,   94.2501526,   567.534424,   40.4459267
    898,   100.462547,   567.534424,   20.6455784
    899,   102.561996,   567.534424,           0.
    900,   100.462547,   587.803467,  -20.6455784
    901,   94.2501526,   587.803467,  -40.4459267
    902,   84.1791382,   587.803467,  -58.5904121
    903,   70.6618271,   587.803467,  -74.3361969
    904,    54.251606,   587.803467,  -87.0386505
    905,   35.6203232,   587.803467,  -96.1777344
    906,    15.530736,   587.803467,  -101.379288
    907,  -5.19468021,   587.803467,  -102.430359
    908,  -25.7074242,   587.803467,  -99.2879257
    909,  -45.1677055,   587.803467,  -92.0806274
    910,  -62.7788124,   587.803467,  -81.1035385
    911,  -77.8197479,   587.803467,  -66.8060608
    912,   -89.674736,   587.803467,  -49.7735405
    913,   -97.858429,   587.803467,  -30.7032814
    914,  -102.035789,   587.803467,  -10.3760252
    915,  -102.035789,   587.803467,   10.3760252
    916,   -97.858429,   587.803467,   30.7032814
    917,   -89.674736,   587.803467,   49.7735405
    918,  -77.8197479,   587.803467,   66.8060608
    919,  -62.7788124,   587.803467,   81.1035385
    920,  -45.1677055,   587.803467,   92.0806274
    921,  -25.7074242,   587.803467,   99.2879257
    922,  -5.19468021,   587.803467,   102.430359
    923,    15.530736,   587.803467,   101.379288
    924,   35.6203232,   587.803467,   96.1777344
    925,    54.251606,   587.803467,   87.0386505
    926,   70.6618271,   587.803467,   74.3361969
    927,   84.1791382,   587.803467,   58.5904121
    928,   94.2501526,   587.803467,   40.4459267
    929,   100.462547,   587.803467,   20.6455784
    930,   102.561996,   587.803467,           0.
    931,   100.462547,   608.072571,  -20.6455784
    932,   94.2501526,   608.072571,  -40.4459267
    933,   84.1791382,   608.072571,  -58.5904121
    934,   70.6618271,   608.072571,  -74.3361969
    935,    54.251606,   608.072571,  -87.0386505
    936,   35.6203232,   608.072571,  -96.1777344
    937,    15.530736,   608.072571,  -101.379288
    938,  -5.19468021,   608.072571,  -102.430359
    939,  -25.7074242,   608.072571,  -99.2879257
    940,  -45.1677055,   608.072571,  -92.0806274
    941,  -62.7788124,   608.072571,  -81.1035385
    942,  -77.8197479,   608.072571,  -66.8060608
    943,   -89.674736,   608.072571,  -49.7735405
    944,   -97.858429,   608.072571,  -30.7032814
    945,  -102.035789,   608.072571,  -10.3760252
    946,  -102.035789,   608.072571,   10.3760252
    947,   -97.858429,   608.072571,   30.7032814
    948,   -89.674736,   608.072571,   49.7735405
    949,  -77.8197479,   608.072571,   66.8060608
    950,  -62.7788124,   608.072571,   81.1035385
    951,  -45.1677055,   608.072571,   92.0806274
    952,  -25.7074242,   608.072571,   99.2879257
    953,  -5.19468021,   608.072571,   102.430359
    954,    15.530736,   608.072571,   101.379288
    955,   35.6203232,   608.072571,   96.1777344
    956,    54.251606,   608.072571,   87.0386505
    957,   70.6618271,   608.072571,   74.3361969
    958,   84.1791382,   608.072571,   58.5904121
    959,   94.2501526,   608.072571,   40.4459267
    960,   100.462547,   608.072571,   20.6455784
    961,   102.561996,   608.072571,           0.
    962,   100.462547,   628.341675,  -20.6455784
    963,   94.2501526,   628.341675,  -40.4459267
    964,   84.1791382,   628.341675,  -58.5904121
    965,   70.6618271,   628.341675,  -74.3361969
    966,    54.251606,   628.341675,  -87.0386505
    967,   35.6203232,   628.341675,  -96.1777344
    968,    15.530736,   628.341675,  -101.379288
    969,  -5.19468021,   628.341675,  -102.430359
    970,  -25.7074242,   628.341675,  -99.2879257
    971,  -45.1677055,   628.341675,  -92.0806274
    972,  -62.7788124,   628.341675,  -81.1035385
    973,  -77.8197479,   628.341675,  -66.8060608
    974,   -89.674736,   628.341675,  -49.7735405
    975,   -97.858429,   628.341675,  -30.7032814
    976,  -102.035789,   628.341675,  -10.3760252
    977,  -102.035789,   628.341675,   10.3760252
    978,   -97.858429,   628.341675,   30.7032814
    979,   -89.674736,   628.341675,   49.7735405
    980,  -77.8197479,   628.341675,   66.8060608
    981,  -62.7788124,   628.341675,   81.1035385
    982,  -45.1677055,   628.341675,   92.0806274
    983,  -25.7074242,   628.341675,   99.2879257
    984,  -5.19468021,   628.341675,   102.430359
    985,    15.530736,   628.341675,   101.379288
    986,   35.6203232,   628.341675,   96.1777344
    987,    54.251606,   628.341675,   87.0386505
    988,   70.6618271,   628.341675,   74.3361969
    989,   84.1791382,   628.341675,   58.5904121
    990,   94.2501526,   628.341675,   40.4459267
    991,   100.462547,   628.341675,   20.6455784
    992,   102.561996,   628.341675,           0.
    993,   100.462547,   648.610718,  -20.6455784
    994,   94.2501526,   648.610718,  -40.4459267
    995,   84.1791382,   648.610718,  -58.5904121
    996,   70.6618271,   648.610718,  -74.3361969
    997,    54.251606,   648.610718,  -87.0386505
    998,   35.6203232,   648.610718,  -96.1777344
    999,    15.530736,   648.610718,  -101.379288
   1000,  -5.19468021,   648.610718,  -102.430359
   1001,  -25.7074242,   648.610718,  -99.2879257
   1002,  -45.1677055,   648.610718,  -92.0806274
   1003,  -62.7788124,   648.610718,  -81.1035385
   1004,  -77.8197479,   648.610718,  -66.8060608
   1005,   -89.674736,   648.610718,  -49.7735405
   1006,   -97.858429,   648.610718,  -30.7032814
   1007,  -102.035789,   648.610718,  -10.3760252
   1008,  -102.035789,   648.610718,   10.3760252
   1009,   -97.858429,   648.610718,   30.7032814
   1010,   -89.674736,   648.610718,   49.7735405
   1011,  -77.8197479,   648.610718,   66.8060608
   1012,  -62.7788124,   648.610718,   81.1035385
   1013,  -45.1677055,   648.610718,   92.0806274
   1014,  -25.7074242,   648.610718,   99.2879257
   1015,  -5.19468021,   648.610718,   102.430359
   1016,    15.530736,   648.610718,   101.379288
   1017,   35.6203232,   648.610718,   96.1777344
   1018,    54.251606,   648.610718,   87.0386505
   1019,   70.6618271,   648.610718,   74.3361969
   1020,   84.1791382,   648.610718,   58.5904121
   1021,   94.2501526,   648.610718,   40.4459267
   1022,   100.462547,   648.610718,   20.6455784
   1023,   102.561996,   648.610718,           0.
   1024,   100.462547,   668.879822,  -20.6455784
   1025,   94.2501526,   668.879822,  -40.4459267
   1026,   84.1791382,   668.879822,  -58.5904121
   1027,   70.6618271,   668.879822,  -74.3361969
   1028,    54.251606,   668.879822,  -87.0386505
   1029,   35.6203232,   668.879822,  -96.1777344
   1030,    15.530736,   668.879822,  -101.379288
   1031,  -5.19468021,   668.879822,  -102.430359
   1032,  -25.7074242,   668.879822,  -99.2879257
   1033,  -45.1677055,   668.879822,  -92.0806274
   1034,  -62.7788124,   668.879822,  -81.1035385
   1035,  -77.8197479,   668.879822,  -66.8060608
   1036,   -89.674736,   668.879822,  -49.7735405
   1037,   -97.858429,   668.879822,  -30.7032814
   1038,  -102.035789,   668.879822,  -10.3760252
   1039,  -102.035789,   668.879822,   10.3760252
   1040,   -97.858429,   668.879822,   30.7032814
   1041,   -89.674736,   668.879822,   49.7735405
   1042,  -77.8197479,   668.879822,   66.8060608
   1043,  -62.7788124,   668.879822,   81.1035385
   1044,  -45.1677055,   668.879822,   92.0806274
   1045,  -25.7074242,   668.879822,   99.2879257
   1046,  -5.19468021,   668.879822,   102.430359
   1047,    15.530736,   668.879822,   101.379288
   1048,   35.6203232,   668.879822,   96.1777344
   1049,    54.251606,   668.879822,   87.0386505
   1050,   70.6618271,   668.879822,   74.3361969
   1051,   84.1791382,   668.879822,   58.5904121
   1052,   94.2501526,   668.879822,   40.4459267
   1053,   100.462547,   668.879822,   20.6455784
   1054,   102.561996,   668.879822,           0.
   1055,   100.462547,   689.148926,  -20.6455784
   1056,   94.2501526,   689.148926,  -40.4459267
   1057,   84.1791382,   689.148926,  -58.5904121
   1058,   70.6618271,   689.148926,  -74.3361969
   1059,    54.251606,   689.148926,  -87.0386505
   1060,   35.6203232,   689.148926,  -96.1777344
   1061,    15.530736,   689.148926,  -101.379288
   1062,  -5.19468021,   689.148926,  -102.430359
   1063,  -25.7074242,   689.148926,  -99.2879257
   1064,  -45.1677055,   689.148926,  -92.0806274
   1065,  -62.7788124,   689.148926,  -81.1035385
   1066,  -77.8197479,   689.148926,  -66.8060608
   1067,   -89.674736,   689.148926,  -49.7735405
   1068,   -97.858429,   689.148926,  -30.7032814
   1069,  -102.035789,   689.148926,  -10.3760252
   1070,  -102.035789,   689.148926,   10.3760252
   1071,   -97.858429,   689.148926,   30.7032814
   1072,   -89.674736,   689.148926,   49.7735405
   1073,  -77.8197479,   689.148926,   66.8060608
   1074,  -62.7788124,   689.148926,   81.1035385
   1075,  -45.1677055,   689.148926,   92.0806274
   1076,  -25.7074242,   689.148926,   99.2879257
   1077,  -5.19468021,   689.148926,   102.430359
   1078,    15.530736,   689.148926,   101.379288
   1079,   35.6203232,   689.148926,   96.1777344
   1080,    54.251606,   689.148926,   87.0386505
   1081,   70.6618271,   689.148926,   74.3361969
   1082,   84.1791382,   689.148926,   58.5904121
   1083,   94.2501526,   689.148926,   40.4459267
   1084,   100.462547,   689.148926,   20.6455784
   1085,   102.561996,   689.148926,           0.
   1086,   100.462547,    709.41803,  -20.6455784
   1087,   94.2501526,    709.41803,  -40.4459267
   1088,   84.1791382,    709.41803,  -58.5904121
   1089,   70.6618271,    709.41803,  -74.3361969
   1090,    54.251606,    709.41803,  -87.0386505
   1091,   35.6203232,    709.41803,  -96.1777344
   1092,    15.530736,    709.41803,  -101.379288
   1093,  -5.19468021,    709.41803,  -102.430359
   1094,  -25.7074242,    709.41803,  -99.2879257
   1095,  -45.1677055,    709.41803,  -92.0806274
   1096,  -62.7788124,    709.41803,  -81.1035385
   1097,  -77.8197479,    709.41803,  -66.8060608
   1098,   -89.674736,    709.41803,  -49.7735405
   1099,   -97.858429,    709.41803,  -30.7032814
   1100,  -102.035789,    709.41803,  -10.3760252
   1101,  -102.035789,    709.41803,   10.3760252
   1102,   -97.858429,    709.41803,   30.7032814
   1103,   -89.674736,    709.41803,   49.7735405
   1104,  -77.8197479,    709.41803,   66.8060608
   1105,  -62.7788124,    709.41803,   81.1035385
   1106,  -45.1677055,    709.41803,   92.0806274
   1107,  -25.7074242,    709.41803,   99.2879257
   1108,  -5.19468021,    709.41803,   102.430359
   1109,    15.530736,    709.41803,   101.379288
   1110,   35.6203232,    709.41803,   96.1777344
   1111,    54.251606,    709.41803,   87.0386505
   1112,   70.6618271,    709.41803,   74.3361969
   1113,   84.1791382,    709.41803,   58.5904121
   1114,   94.2501526,    709.41803,   40.4459267
   1115,   100.462547,    709.41803,   20.6455784
   1116,   102.561996,    709.41803,           0.
*Element, type=S4R
   1,   31,    1,   32,   62
   2,    1,    2,   33,   32
   3,    2,    3,   34,   33
   4,    3,    4,   35,   34
   5,    4,    5,   36,   35
   6,    5,    6,   37,   36
   7,    6,    7,   38,   37
   8,    7,    8,   39,   38
   9,    8,    9,   40,   39
  10,    9,   10,   41,   40
  11,   10,   11,   42,   41
  12,   11,   12,   43,   42
  13,   12,   13,   44,   43
  14,   13,   14,   45,   44
  15,   14,   15,   46,   45
  16,   15,   16,   47,   46
  17,   16,   17,   48,   47
  18,   17,   18,   49,   48
  19,   18,   19,   50,   49
  20,   19,   20,   51,   50
  21,   20,   21,   52,   51
  22,   21,   22,   53,   52
  23,   22,   23,   54,   53
  24,   23,   24,   55,   54
  25,   24,   25,   56,   55
  26,   25,   26,   57,   56
  27,   26,   27,   58,   57
  28,   27,   28,   59,   58
  29,   28,   29,   60,   59
  30,   29,   30,   61,   60
  31,   30,   31,   62,   61
  32,   62,   32,   63,   93
  33,   32,   33,   64,   63
  34,   33,   34,   65,   64
  35,   34,   35,   66,   65
  36,   35,   36,   67,   66
  37,   36,   37,   68,   67
  38,   37,   38,   69,   68
  39,   38,   39,   70,   69
  40,   39,   40,   71,   70
  41,   40,   41,   72,   71
  42,   41,   42,   73,   72
  43,   42,   43,   74,   73
  44,   43,   44,   75,   74
  45,   44,   45,   76,   75
  46,   45,   46,   77,   76
  47,   46,   47,   78,   77
  48,   47,   48,   79,   78
  49,   48,   49,   80,   79
  50,   49,   50,   81,   80
  51,   50,   51,   82,   81
  52,   51,   52,   83,   82
  53,   52,   53,   84,   83
  54,   53,   54,   85,   84
  55,   54,   55,   86,   85
  56,   55,   56,   87,   86
  57,   56,   57,   88,   87
  58,   57,   58,   89,   88
  59,   58,   59,   90,   89
  60,   59,   60,   91,   90
  61,   60,   61,   92,   91
  62,   61,   62,   93,   92
  63,   93,   63,   94,  124
  64,   63,   64,   95,   94
  65,   64,   65,   96,   95
  66,   65,   66,   97,   96
  67,   66,   67,   98,   97
  68,   67,   68,   99,   98
  69,   68,   69,  100,   99
  70,   69,   70,  101,  100
  71,   70,   71,  102,  101
  72,   71,   72,  103,  102
  73,   72,   73,  104,  103
  74,   73,   74,  105,  104
  75,   74,   75,  106,  105
  76,   75,   76,  107,  106
  77,   76,   77,  108,  107
  78,   77,   78,  109,  108
  79,   78,   79,  110,  109
  80,   79,   80,  111,  110
  81,   80,   81,  112,  111
  82,   81,   82,  113,  112
  83,   82,   83,  114,  113
  84,   83,   84,  115,  114
  85,   84,   85,  116,  115
  86,   85,   86,  117,  116
  87,   86,   87,  118,  117
  88,   87,   88,  119,  118
  89,   88,   89,  120,  119
  90,   89,   90,  121,  120
  91,   90,   91,  122,  121
  92,   91,   92,  123,  122
  93,   92,   93,  124,  123
  94,  124,   94,  125,  155
  95,   94,   95,  126,  125
  96,   95,   96,  127,  126
  97,   96,   97,  128,  127
  98,   97,   98,  129,  128
  99,   98,   99,  130,  129
 100,   99,  100,  131,  130
 101,  100,  101,  132,  131
 102,  101,  102,  133,  132
 103,  102,  103,  134,  133
 104,  103,  104,  135,  134
 105,  104,  105,  136,  135
 106,  105,  106,  137,  136
 107,  106,  107,  138,  137
 108,  107,  108,  139,  138
 109,  108,  109,  140,  139
 110,  109,  110,  141,  140
 111,  110,  111,  142,  141
 112,  111,  112,  143,  142
 113,  112,  113,  144,  143
 114,  113,  114,  145,  144
 115,  114,  115,  146,  145
 116,  115,  116,  147,  146
 117,  116,  117,  148,  147
 118,  117,  118,  149,  148
 119,  118,  119,  150,  149
 120,  119,  120,  151,  150
 121,  120,  121,  152,  151
 122,  121,  122,  153,  152
 123,  122,  123,  154,  153
 124,  123,  124,  155,  154
 125,  155,  125,  156,  186
 126,  125,  126,  157,  156
 127,  126,  127,  158,  157
 128,  127,  128,  159,  158
 129,  128,  129,  160,  159
 130,  129,  130,  161,  160
 131,  130,  131,  162,  161
 132,  131,  132,  163,  162
 133,  132,  133,  164,  163
 134,  133,  134,  165,  164
 135,  134,  135,  166,  165
 136,  135,  136,  167,  166
 137,  136,  137,  168,  167
 138,  137,  138,  169,  168
 139,  138,  139,  170,  169
 140,  139,  140,  171,  170
 141,  140,  141,  172,  171
 142,  141,  142,  173,  172
 143,  142,  143,  174,  173
 144,  143,  144,  175,  174
 145,  144,  145,  176,  175
 146,  145,  146,  177,  176
 147,  146,  147,  178,  177
 148,  147,  148,  179,  178
 149,  148,  149,  180,  179
 150,  149,  150,  181,  180
 151,  150,  151,  182,  181
 152,  151,  152,  183,  182
 153,  152,  153,  184,  183
 154,  153,  154,  185,  184
 155,  154,  155,  186,  185
 156,  186,  156,  187,  217
 157,  156,  157,  188,  187
 158,  157,  158,  189,  188
 159,  158,  159,  190,  189
 160,  159,  160,  191,  190
 161,  160,  161,  192,  191
 162,  161,  162,  193,  192
 163,  162,  163,  194,  193
 164,  163,  164,  195,  194
 165,  164,  165,  196,  195
 166,  165,  166,  197,  196
 167,  166,  167,  198,  197
 168,  167,  168,  199,  198
 169,  168,  169,  200,  199
 170,  169,  170,  201,  200
 171,  170,  171,  202,  201
 172,  171,  172,  203,  202
 173,  172,  173,  204,  203
 174,  173,  174,  205,  204
 175,  174,  175,  206,  205
 176,  175,  176,  207,  206
 177,  176,  177,  208,  207
 178,  177,  178,  209,  208
 179,  178,  179,  210,  209
 180,  179,  180,  211,  210
 181,  180,  181,  212,  211
 182,  181,  182,  213,  212
 183,  182,  183,  214,  213
 184,  183,  184,  215,  214
 185,  184,  185,  216,  215
 186,  185,  186,  217,  216
 187,  217,  187,  218,  248
 188,  187,  188,  219,  218
 189,  188,  189,  220,  219
 190,  189,  190,  221,  220
 191,  190,  191,  222,  221
 192,  191,  192,  223,  222
 193,  192,  193,  224,  223
 194,  193,  194,  225,  224
 195,  194,  195,  226,  225
 196,  195,  196,  227,  226
 197,  196,  197,  228,  227
 198,  197,  198,  229,  228
 199,  198,  199,  230,  229
 200,  199,  200,  231,  230
 201,  200,  201,  232,  231
 202,  201,  202,  233,  232
 203,  202,  203,  234,  233
 204,  203,  204,  235,  234
 205,  204,  205,  236,  235
 206,  205,  206,  237,  236
 207,  206,  207,  238,  237
 208,  207,  208,  239,  238
 209,  208,  209,  240,  239
 210,  209,  210,  241,  240
 211,  210,  211,  242,  241
 212,  211,  212,  243,  242
 213,  212,  213,  244,  243
 214,  213,  214,  245,  244
 215,  214,  215,  246,  245
 216,  215,  216,  247,  246
 217,  216,  217,  248,  247
 218,  248,  218,  249,  279
 219,  218,  219,  250,  249
 220,  219,  220,  251,  250
 221,  220,  221,  252,  251
 222,  221,  222,  253,  252
 223,  222,  223,  254,  253
 224,  223,  224,  255,  254
 225,  224,  225,  256,  255
 226,  225,  226,  257,  256
 227,  226,  227,  258,  257
 228,  227,  228,  259,  258
 229,  228,  229,  260,  259
 230,  229,  230,  261,  260
 231,  230,  231,  262,  261
 232,  231,  232,  263,  262
 233,  232,  233,  264,  263
 234,  233,  234,  265,  264
 235,  234,  235,  266,  265
 236,  235,  236,  267,  266
 237,  236,  237,  268,  267
 238,  237,  238,  269,  268
 239,  238,  239,  270,  269
 240,  239,  240,  271,  270
 241,  240,  241,  272,  271
 242,  241,  242,  273,  272
 243,  242,  243,  274,  273
 244,  243,  244,  275,  274
 245,  244,  245,  276,  275
 246,  245,  246,  277,  276
 247,  246,  247,  278,  277
 248,  247,  248,  279,  278
 249,  279,  249,  280,  310
 250,  249,  250,  281,  280
 251,  250,  251,  282,  281
 252,  251,  252,  283,  282
 253,  252,  253,  284,  283
 254,  253,  254,  285,  284
 255,  254,  255,  286,  285
 256,  255,  256,  287,  286
 257,  256,  257,  288,  287
 258,  257,  258,  289,  288
 259,  258,  259,  290,  289
 260,  259,  260,  291,  290
 261,  260,  261,  292,  291
 262,  261,  262,  293,  292
 263,  262,  263,  294,  293
 264,  263,  264,  295,  294
 265,  264,  265,  296,  295
 266,  265,  266,  297,  296
 267,  266,  267,  298,  297
 268,  267,  268,  299,  298
 269,  268,  269,  300,  299
 270,  269,  270,  301,  300
 271,  270,  271,  302,  301
 272,  271,  272,  303,  302
 273,  272,  273,  304,  303
 274,  273,  274,  305,  304
 275,  274,  275,  306,  305
 276,  275,  276,  307,  306
 277,  276,  277,  308,  307
 278,  277,  278,  309,  308
 279,  278,  279,  310,  309
 280,  310,  280,  311,  341
 281,  280,  281,  312,  311
 282,  281,  282,  313,  312
 283,  282,  283,  314,  313
 284,  283,  284,  315,  314
 285,  284,  285,  316,  315
 286,  285,  286,  317,  316
 287,  286,  287,  318,  317
 288,  287,  288,  319,  318
 289,  288,  289,  320,  319
 290,  289,  290,  321,  320
 291,  290,  291,  322,  321
 292,  291,  292,  323,  322
 293,  292,  293,  324,  323
 294,  293,  294,  325,  324
 295,  294,  295,  326,  325
 296,  295,  296,  327,  326
 297,  296,  297,  328,  327
 298,  297,  298,  329,  328
 299,  298,  299,  330,  329
 300,  299,  300,  331,  330
 301,  300,  301,  332,  331
 302,  301,  302,  333,  332
 303,  302,  303,  334,  333
 304,  303,  304,  335,  334
 305,  304,  305,  336,  335
 306,  305,  306,  337,  336
 307,  306,  307,  338,  337
 308,  307,  308,  339,  338
 309,  308,  309,  340,  339
 310,  309,  310,  341,  340
 311,  341,  311,  342,  372
 312,  311,  312,  343,  342
 313,  312,  313,  344,  343
 314,  313,  314,  345,  344
 315,  314,  315,  346,  345
 316,  315,  316,  347,  346
 317,  316,  317,  348,  347
 318,  317,  318,  349,  348
 319,  318,  319,  350,  349
 320,  319,  320,  351,  350
 321,  320,  321,  352,  351
 322,  321,  322,  353,  352
 323,  322,  323,  354,  353
 324,  323,  324,  355,  354
 325,  324,  325,  356,  355
 326,  325,  326,  357,  356
 327,  326,  327,  358,  357
 328,  327,  328,  359,  358
 329,  328,  329,  360,  359
 330,  329,  330,  361,  360
 331,  330,  331,  362,  361
 332,  331,  332,  363,  362
 333,  332,  333,  364,  363
 334,  333,  334,  365,  364
 335,  334,  335,  366,  365
 336,  335,  336,  367,  366
 337,  336,  337,  368,  367
 338,  337,  338,  369,  368
 339,  338,  339,  370,  369
 340,  339,  340,  371,  370
 341,  340,  341,  372,  371
 342,  372,  342,  373,  403
 343,  342,  343,  374,  373
 344,  343,  344,  375,  374
 345,  344,  345,  376,  375
 346,  345,  346,  377,  376
 347,  346,  347,  378,  377
 348,  347,  348,  379,  378
 349,  348,  349,  380,  379
 350,  349,  350,  381,  380
 351,  350,  351,  382,  381
 352,  351,  352,  383,  382
 353,  352,  353,  384,  383
 354,  353,  354,  385,  384
 355,  354,  355,  386,  385
 356,  355,  356,  387,  386
 357,  356,  357,  388,  387
 358,  357,  358,  389,  388
 359,  358,  359,  390,  389
 360,  359,  360,  391,  390
 361,  360,  361,  392,  391
 362,  361,  362,  393,  392
 363,  362,  363,  394,  393
 364,  363,  364,  395,  394
 365,  364,  365,  396,  395
 366,  365,  366,  397,  396
 367,  366,  367,  398,  397
 368,  367,  368,  399,  398
 369,  368,  369,  400,  399
 370,  369,  370,  401,  400
 371,  370,  371,  402,  401
 372,  371,  372,  403,  402
 373,  403,  373,  404,  434
 374,  373,  374,  405,  404
 375,  374,  375,  406,  405
 376,  375,  376,  407,  406
 377,  376,  377,  408,  407
 378,  377,  378,  409,  408
 379,  378,  379,  410,  409
 380,  379,  380,  411,  410
 381,  380,  381,  412,  411
 382,  381,  382,  413,  412
 383,  382,  383,  414,  413
 384,  383,  384,  415,  414
 385,  384,  385,  416,  415
 386,  385,  386,  417,  416
 387,  386,  387,  418,  417
 388,  387,  388,  419,  418
 389,  388,  389,  420,  419
 390,  389,  390,  421,  420
 391,  390,  391,  422,  421
 392,  391,  392,  423,  422
 393,  392,  393,  424,  423
 394,  393,  394,  425,  424
 395,  394,  395,  426,  425
 396,  395,  396,  427,  426
 397,  396,  397,  428,  427
 398,  397,  398,  429,  428
 399,  398,  399,  430,  429
 400,  399,  400,  431,  430
 401,  400,  401,  432,  431
 402,  401,  402,  433,  432
 403,  402,  403,  434,  433
 404,  434,  404,  435,  465
 405,  404,  405,  436,  435
 406,  405,  406,  437,  436
 407,  406,  407,  438,  437
 408,  407,  408,  439,  438
 409,  408,  409,  440,  439
 410,  409,  410,  441,  440
 411,  410,  411,  442,  441
 412,  411,  412,  443,  442
 413,  412,  413,  444,  443
 414,  413,  414,  445,  444
 415,  414,  415,  446,  445
 416,  415,  416,  447,  446
 417,  416,  417,  448,  447
 418,  417,  418,  449,  448
 419,  418,  419,  450,  449
 420,  419,  420,  451,  450
 421,  420,  421,  452,  451
 422,  421,  422,  453,  452
 423,  422,  423,  454,  453
 424,  423,  424,  455,  454
 425,  424,  425,  456,  455
 426,  425,  426,  457,  456
 427,  426,  427,  458,  457
 428,  427,  428,  459,  458
 429,  428,  429,  460,  459
 430,  429,  430,  461,  460
 431,  430,  431,  462,  461
 432,  431,  432,  463,  462
 433,  432,  433,  464,  463
 434,  433,  434,  465,  464
 435,  465,  435,  466,  496
 436,  435,  436,  467,  466
 437,  436,  437,  468,  467
 438,  437,  438,  469,  468
 439,  438,  439,  470,  469
 440,  439,  440,  471,  470
 441,  440,  441,  472,  471
 442,  441,  442,  473,  472
 443,  442,  443,  474,  473
 444,  443,  444,  475,  474
 445,  444,  445,  476,  475
 446,  445,  446,  477,  476
 447,  446,  447,  478,  477
 448,  447,  448,  479,  478
 449,  448,  449,  480,  479
 450,  449,  450,  481,  480
 451,  450,  451,  482,  481
 452,  451,  452,  483,  482
 453,  452,  453,  484,  483
 454,  453,  454,  485,  484
 455,  454,  455,  486,  485
 456,  455,  456,  487,  486
 457,  456,  457,  488,  487
 458,  457,  458,  489,  488
 459,  458,  459,  490,  489
 460,  459,  460,  491,  490
 461,  460,  461,  492,  491
 462,  461,  462,  493,  492
 463,  462,  463,  494,  493
 464,  463,  464,  495,  494
 465,  464,  465,  496,  495
 466,  496,  466,  497,  527
 467,  466,  467,  498,  497
 468,  467,  468,  499,  498
 469,  468,  469,  500,  499
 470,  469,  470,  501,  500
 471,  470,  471,  502,  501
 472,  471,  472,  503,  502
 473,  472,  473,  504,  503
 474,  473,  474,  505,  504
 475,  474,  475,  506,  505
 476,  475,  476,  507,  506
 477,  476,  477,  508,  507
 478,  477,  478,  509,  508
 479,  478,  479,  510,  509
 480,  479,  480,  511,  510
 481,  480,  481,  512,  511
 482,  481,  482,  513,  512
 483,  482,  483,  514,  513
 484,  483,  484,  515,  514
 485,  484,  485,  516,  515
 486,  485,  486,  517,  516
 487,  486,  487,  518,  517
 488,  487,  488,  519,  518
 489,  488,  489,  520,  519
 490,  489,  490,  521,  520
 491,  490,  491,  522,  521
 492,  491,  492,  523,  522
 493,  492,  493,  524,  523
 494,  493,  494,  525,  524
 495,  494,  495,  526,  525
 496,  495,  496,  527,  526
 497,  527,  497,  528,  558
 498,  497,  498,  529,  528
 499,  498,  499,  530,  529
 500,  499,  500,  531,  530
 501,  500,  501,  532,  531
 502,  501,  502,  533,  532
 503,  502,  503,  534,  533
 504,  503,  504,  535,  534
 505,  504,  505,  536,  535
 506,  505,  506,  537,  536
 507,  506,  507,  538,  537
 508,  507,  508,  539,  538
 509,  508,  509,  540,  539
 510,  509,  510,  541,  540
 511,  510,  511,  542,  541
 512,  511,  512,  543,  542
 513,  512,  513,  544,  543
 514,  513,  514,  545,  544
 515,  514,  515,  546,  545
 516,  515,  516,  547,  546
 517,  516,  517,  548,  547
 518,  517,  518,  549,  548
 519,  518,  519,  550,  549
 520,  519,  520,  551,  550
 521,  520,  521,  552,  551
 522,  521,  522,  553,  552
 523,  522,  523,  554,  553
 524,  523,  524,  555,  554
 525,  524,  525,  556,  555
 526,  525,  526,  557,  556
 527,  526,  527,  558,  557
 528,  558,  528,  559,  589
 529,  528,  529,  560,  559
 530,  529,  530,  561,  560
 531,  530,  531,  562,  561
 532,  531,  532,  563,  562
 533,  532,  533,  564,  563
 534,  533,  534,  565,  564
 535,  534,  535,  566,  565
 536,  535,  536,  567,  566
 537,  536,  537,  568,  567
 538,  537,  538,  569,  568
 539,  538,  539,  570,  569
 540,  539,  540,  571,  570
 541,  540,  541,  572,  571
 542,  541,  542,  573,  572
 543,  542,  543,  574,  573
 544,  543,  544,  575,  574
 545,  544,  545,  576,  575
 546,  545,  546,  577,  576
 547,  546,  547,  578,  577
 548,  547,  548,  579,  578
 549,  548,  549,  580,  579
 550,  549,  550,  581,  580
 551,  550,  551,  582,  581
 552,  551,  552,  583,  582
 553,  552,  553,  584,  583
 554,  553,  554,  585,  584
 555,  554,  555,  586,  585
 556,  555,  556,  587,  586
 557,  556,  557,  588,  587
 558,  557,  558,  589,  588
 559,  589,  559,  590,  620
 560,  559,  560,  591,  590
 561,  560,  561,  592,  591
 562,  561,  562,  593,  592
 563,  562,  563,  594,  593
 564,  563,  564,  595,  594
 565,  564,  565,  596,  595
 566,  565,  566,  597,  596
 567,  566,  567,  598,  597
 568,  567,  568,  599,  598
 569,  568,  569,  600,  599
 570,  569,  570,  601,  600
 571,  570,  571,  602,  601
 572,  571,  572,  603,  602
 573,  572,  573,  604,  603
 574,  573,  574,  605,  604
 575,  574,  575,  606,  605
 576,  575,  576,  607,  606
 577,  576,  577,  608,  607
 578,  577,  578,  609,  608
 579,  578,  579,  610,  609
 580,  579,  580,  611,  610
 581,  580,  581,  612,  611
 582,  581,  582,  613,  612
 583,  582,  583,  614,  613
 584,  583,  584,  615,  614
 585,  584,  585,  616,  615
 586,  585,  586,  617,  616
 587,  586,  587,  618,  617
 588,  587,  588,  619,  618
 589,  588,  589,  620,  619
 590,  620,  590,  621,  651
 591,  590,  591,  622,  621
 592,  591,  592,  623,  622
 593,  592,  593,  624,  623
 594,  593,  594,  625,  624
 595,  594,  595,  626,  625
 596,  595,  596,  627,  626
 597,  596,  597,  628,  627
 598,  597,  598,  629,  628
 599,  598,  599,  630,  629
 600,  599,  600,  631,  630
 601,  600,  601,  632,  631
 602,  601,  602,  633,  632
 603,  602,  603,  634,  633
 604,  603,  604,  635,  634
 605,  604,  605,  636,  635
 606,  605,  606,  637,  636
 607,  606,  607,  638,  637
 608,  607,  608,  639,  638
 609,  608,  609,  640,  639
 610,  609,  610,  641,  640
 611,  610,  611,  642,  641
 612,  611,  612,  643,  642
 613,  612,  613,  644,  643
 614,  613,  614,  645,  644
 615,  614,  615,  646,  645
 616,  615,  616,  647,  646
 617,  616,  617,  648,  647
 618,  617,  618,  649,  648
 619,  618,  619,  650,  649
 620,  619,  620,  651,  650
 621,  651,  621,  652,  682
 622,  621,  622,  653,  652
 623,  622,  623,  654,  653
 624,  623,  624,  655,  654
 625,  624,  625,  656,  655
 626,  625,  626,  657,  656
 627,  626,  627,  658,  657
 628,  627,  628,  659,  658
 629,  628,  629,  660,  659
 630,  629,  630,  661,  660
 631,  630,  631,  662,  661
 632,  631,  632,  663,  662
 633,  632,  633,  664,  663
 634,  633,  634,  665,  664
 635,  634,  635,  666,  665
 636,  635,  636,  667,  666
 637,  636,  637,  668,  667
 638,  637,  638,  669,  668
 639,  638,  639,  670,  669
 640,  639,  640,  671,  670
 641,  640,  641,  672,  671
 642,  641,  642,  673,  672
 643,  642,  643,  674,  673
 644,  643,  644,  675,  674
 645,  644,  645,  676,  675
 646,  645,  646,  677,  676
 647,  646,  647,  678,  677
 648,  647,  648,  679,  678
 649,  648,  649,  680,  679
 650,  649,  650,  681,  680
 651,  650,  651,  682,  681
 652,  682,  652,  683,  713
 653,  652,  653,  684,  683
 654,  653,  654,  685,  684
 655,  654,  655,  686,  685
 656,  655,  656,  687,  686
 657,  656,  657,  688,  687
 658,  657,  658,  689,  688
 659,  658,  659,  690,  689
 660,  659,  660,  691,  690
 661,  660,  661,  692,  691
 662,  661,  662,  693,  692
 663,  662,  663,  694,  693
 664,  663,  664,  695,  694
 665,  664,  665,  696,  695
 666,  665,  666,  697,  696
 667,  666,  667,  698,  697
 668,  667,  668,  699,  698
 669,  668,  669,  700,  699
 670,  669,  670,  701,  700
 671,  670,  671,  702,  701
 672,  671,  672,  703,  702
 673,  672,  673,  704,  703
 674,  673,  674,  705,  704
 675,  674,  675,  706,  705
 676,  675,  676,  707,  706
 677,  676,  677,  708,  707
 678,  677,  678,  709,  708
 679,  678,  679,  710,  709
 680,  679,  680,  711,  710
 681,  680,  681,  712,  711
 682,  681,  682,  713,  712
 683,  713,  683,  714,  744
 684,  683,  684,  715,  714
 685,  684,  685,  716,  715
 686,  685,  686,  717,  716
 687,  686,  687,  718,  717
 688,  687,  688,  719,  718
 689,  688,  689,  720,  719
 690,  689,  690,  721,  720
 691,  690,  691,  722,  721
 692,  691,  692,  723,  722
 693,  692,  693,  724,  723
 694,  693,  694,  725,  724
 695,  694,  695,  726,  725
 696,  695,  696,  727,  726
 697,  696,  697,  728,  727
 698,  697,  698,  729,  728
 699,  698,  699,  730,  729
 700,  699,  700,  731,  730
 701,  700,  701,  732,  731
 702,  701,  702,  733,  732
 703,  702,  703,  734,  733
 704,  703,  704,  735,  734
 705,  704,  705,  736,  735
 706,  705,  706,  737,  736
 707,  706,  707,  738,  737
 708,  707,  708,  739,  738
 709,  708,  709,  740,  739
 710,  709,  710,  741,  740
 711,  710,  711,  742,  741
 712,  711,  712,  743,  742
 713,  712,  713,  744,  743
 714,  744,  714,  745,  775
 715,  714,  715,  746,  745
 716,  715,  716,  747,  746
 717,  716,  717,  748,  747
 718,  717,  718,  749,  748
 719,  718,  719,  750,  749
 720,  719,  720,  751,  750
 721,  720,  721,  752,  751
 722,  721,  722,  753,  752
 723,  722,  723,  754,  753
 724,  723,  724,  755,  754
 725,  724,  725,  756,  755
 726,  725,  726,  757,  756
 727,  726,  727,  758,  757
 728,  727,  728,  759,  758
 729,  728,  729,  760,  759
 730,  729,  730,  761,  760
 731,  730,  731,  762,  761
 732,  731,  732,  763,  762
 733,  732,  733,  764,  763
 734,  733,  734,  765,  764
 735,  734,  735,  766,  765
 736,  735,  736,  767,  766
 737,  736,  737,  768,  767
 738,  737,  738,  769,  768
 739,  738,  739,  770,  769
 740,  739,  740,  771,  770
 741,  740,  741,  772,  771
 742,  741,  742,  773,  772
 743,  742,  743,  774,  773
 744,  743,  744,  775,  774
 745,  775,  745,  776,  806
 746,  745,  746,  777,  776
 747,  746,  747,  778,  777
 748,  747,  748,  779,  778
 749,  748,  749,  780,  779
 750,  749,  750,  781,  780
 751,  750,  751,  782,  781
 752,  751,  752,  783,  782
 753,  752,  753,  784,  783
 754,  753,  754,  785,  784
 755,  754,  755,  786,  785
 756,  755,  756,  787,  786
 757,  756,  757,  788,  787
 758,  757,  758,  789,  788
 759,  758,  759,  790,  789
 760,  759,  760,  791,  790
 761,  760,  761,  792,  791
 762,  761,  762,  793,  792
 763,  762,  763,  794,  793
 764,  763,  764,  795,  794
 765,  764,  765,  796,  795
 766,  765,  766,  797,  796
 767,  766,  767,  798,  797
 768,  767,  768,  799,  798
 769,  768,  769,  800,  799
 770,  769,  770,  801,  800
 771,  770,  771,  802,  801
 772,  771,  772,  803,  802
 773,  772,  773,  804,  803
 774,  773,  774,  805,  804
 775,  774,  775,  806,  805
 776,  806,  776,  807,  837
 777,  776,  777,  808,  807
 778,  777,  778,  809,  808
 779,  778,  779,  810,  809
 780,  779,  780,  811,  810
 781,  780,  781,  812,  811
 782,  781,  782,  813,  812
 783,  782,  783,  814,  813
 784,  783,  784,  815,  814
 785,  784,  785,  816,  815
 786,  785,  786,  817,  816
 787,  786,  787,  818,  817
 788,  787,  788,  819,  818
 789,  788,  789,  820,  819
 790,  789,  790,  821,  820
 791,  790,  791,  822,  821
 792,  791,  792,  823,  822
 793,  792,  793,  824,  823
 794,  793,  794,  825,  824
 795,  794,  795,  826,  825
 796,  795,  796,  827,  826
 797,  796,  797,  828,  827
 798,  797,  798,  829,  828
 799,  798,  799,  830,  829
 800,  799,  800,  831,  830
 801,  800,  801,  832,  831
 802,  801,  802,  833,  832
 803,  802,  803,  834,  833
 804,  803,  804,  835,  834
 805,  804,  805,  836,  835
 806,  805,  806,  837,  836
 807,  837,  807,  838,  868
 808,  807,  808,  839,  838
 809,  808,  809,  840,  839
 810,  809,  810,  841,  840
 811,  810,  811,  842,  841
 812,  811,  812,  843,  842
 813,  812,  813,  844,  843
 814,  813,  814,  845,  844
 815,  814,  815,  846,  845
 816,  815,  816,  847,  846
 817,  816,  817,  848,  847
 818,  817,  818,  849,  848
 819,  818,  819,  850,  849
 820,  819,  820,  851,  850
 821,  820,  821,  852,  851
 822,  821,  822,  853,  852
 823,  822,  823,  854,  853
 824,  823,  824,  855,  854
 825,  824,  825,  856,  855
 826,  825,  826,  857,  856
 827,  826,  827,  858,  857
 828,  827,  828,  859,  858
 829,  828,  829,  860,  859
 830,  829,  830,  861,  860
 831,  830,  831,  862,  861
 832,  831,  832,  863,  862
 833,  832,  833,  864,  863
 834,  833,  834,  865,  864
 835,  834,  835,  866,  865
 836,  835,  836,  867,  866
 837,  836,  837,  868,  867
 838,  868,  838,  869,  899
 839,  838,  839,  870,  869
 840,  839,  840,  871,  870
 841,  840,  841,  872,  871
 842,  841,  842,  873,  872
 843,  842,  843,  874,  873
 844,  843,  844,  875,  874
 845,  844,  845,  876,  875
 846,  845,  846,  877,  876
 847,  846,  847,  878,  877
 848,  847,  848,  879,  878
 849,  848,  849,  880,  879
 850,  849,  850,  881,  880
 851,  850,  851,  882,  881
 852,  851,  852,  883,  882
 853,  852,  853,  884,  883
 854,  853,  854,  885,  884
 855,  854,  855,  886,  885
 856,  855,  856,  887,  886
 857,  856,  857,  888,  887
 858,  857,  858,  889,  888
 859,  858,  859,  890,  889
 860,  859,  860,  891,  890
 861,  860,  861,  892,  891
 862,  861,  862,  893,  892
 863,  862,  863,  894,  893
 864,  863,  864,  895,  894
 865,  864,  865,  896,  895
 866,  865,  866,  897,  896
 867,  866,  867,  898,  897
 868,  867,  868,  899,  898
 869,  899,  869,  900,  930
 870,  869,  870,  901,  900
 871,  870,  871,  902,  901
 872,  871,  872,  903,  902
 873,  872,  873,  904,  903
 874,  873,  874,  905,  904
 875,  874,  875,  906,  905
 876,  875,  876,  907,  906
 877,  876,  877,  908,  907
 878,  877,  878,  909,  908
 879,  878,  879,  910,  909
 880,  879,  880,  911,  910
 881,  880,  881,  912,  911
 882,  881,  882,  913,  912
 883,  882,  883,  914,  913
 884,  883,  884,  915,  914
 885,  884,  885,  916,  915
 886,  885,  886,  917,  916
 887,  886,  887,  918,  917
 888,  887,  888,  919,  918
 889,  888,  889,  920,  919
 890,  889,  890,  921,  920
 891,  890,  891,  922,  921
 892,  891,  892,  923,  922
 893,  892,  893,  924,  923
 894,  893,  894,  925,  924
 895,  894,  895,  926,  925
 896,  895,  896,  927,  926
 897,  896,  897,  928,  927
 898,  897,  898,  929,  928
 899,  898,  899,  930,  929
 900,  930,  900,  931,  961
 901,  900,  901,  932,  931
 902,  901,  902,  933,  932
 903,  902,  903,  934,  933
 904,  903,  904,  935,  934
 905,  904,  905,  936,  935
 906,  905,  906,  937,  936
 907,  906,  907,  938,  937
 908,  907,  908,  939,  938
 909,  908,  909,  940,  939
 910,  909,  910,  941,  940
 911,  910,  911,  942,  941
 912,  911,  912,  943,  942
 913,  912,  913,  944,  943
 914,  913,  914,  945,  944
 915,  914,  915,  946,  945
 916,  915,  916,  947,  946
 917,  916,  917,  948,  947
 918,  917,  918,  949,  948
 919,  918,  919,  950,  949
 920,  919,  920,  951,  950
 921,  920,  921,  952,  951
 922,  921,  922,  953,  952
 923,  922,  923,  954,  953
 924,  923,  924,  955,  954
 925,  924,  925,  956,  955
 926,  925,  926,  957,  956
 927,  926,  927,  958,  957
 928,  927,  928,  959,  958
 929,  928,  929,  960,  959
 930,  929,  930,  961,  960
 931,  961,  931,  962,  992
 932,  931,  932,  963,  962
 933,  932,  933,  964,  963
 934,  933,  934,  965,  964
 935,  934,  935,  966,  965
 936,  935,  936,  967,  966
 937,  936,  937,  968,  967
 938,  937,  938,  969,  968
 939,  938,  939,  970,  969
 940,  939,  940,  971,  970
 941,  940,  941,  972,  971
 942,  941,  942,  973,  972
 943,  942,  943,  974,  973
 944,  943,  944,  975,  974
 945,  944,  945,  976,  975
 946,  945,  946,  977,  976
 947,  946,  947,  978,  977
 948,  947,  948,  979,  978
 949,  948,  949,  980,  979
 950,  949,  950,  981,  980
 951,  950,  951,  982,  981
 952,  951,  952,  983,  982
 953,  952,  953,  984,  983
 954,  953,  954,  985,  984
 955,  954,  955,  986,  985
 956,  955,  956,  987,  986
 957,  956,  957,  988,  987
 958,  957,  958,  989,  988
 959,  958,  959,  990,  989
 960,  959,  960,  991,  990
 961,  960,  961,  992,  991
 962,  992,  962,  993, 1023
 963,  962,  963,  994,  993
 964,  963,  964,  995,  994
 965,  964,  965,  996,  995
 966,  965,  966,  997,  996
 967,  966,  967,  998,  997
 968,  967,  968,  999,  998
 969,  968,  969, 1000,  999
 970,  969,  970, 1001, 1000
 971,  970,  971, 1002, 1001
 972,  971,  972, 1003, 1002
 973,  972,  973, 1004, 1003
 974,  973,  974, 1005, 1004
 975,  974,  975, 1006, 1005
 976,  975,  976, 1007, 1006
 977,  976,  977, 1008, 1007
 978,  977,  978, 1009, 1008
 979,  978,  979, 1010, 1009
 980,  979,  980, 1011, 1010
 981,  980,  981, 1012, 1011
 982,  981,  982, 1013, 1012
 983,  982,  983, 1014, 1013
 984,  983,  984, 1015, 1014
 985,  984,  985, 1016, 1015
 986,  985,  986, 1017, 1016
 987,  986,  987, 1018, 1017
 988,  987,  988, 1019, 1018
 989,  988,  989, 1020, 1019
 990,  989,  990, 1021, 1020
 991,  990,  991, 1022, 1021
 992,  991,  992, 1023, 1022
 993, 1023,  993, 1024, 1054
 994,  993,  994, 1025, 1024
 995,  994,  995, 1026, 1025
 996,  995,  996, 1027, 1026
 997,  996,  997, 1028, 1027
 998,  997,  998, 1029, 1028
 999,  998,  999, 1030, 1029
1000,  999, 1000, 1031, 1030
1001, 1000, 1001, 1032, 1031
1002, 1001, 1002, 1033, 1032
1003, 1002, 1003, 1034, 1033
1004, 1003, 1004, 1035, 1034
1005, 1004, 1005, 1036, 1035
1006, 1005, 1006, 1037, 1036
1007, 1006, 1007, 1038, 1037
1008, 1007, 1008, 1039, 1038
1009, 1008, 1009, 1040, 1039
1010, 1009, 1010, 1041, 1040
1011, 1010, 1011, 1042, 1041
1012, 1011, 1012, 1043, 1042
1013, 1012, 1013, 1044, 1043
1014, 1013, 1014, 1045, 1044
1015, 1014, 1015, 1046, 1045
1016, 1015, 1016, 1047, 1046
1017, 1016, 1017, 1048, 1047
1018, 1017, 1018, 1049, 1048
1019, 1018, 1019, 1050, 1049
1020, 1019, 1020, 1051, 1050
1021, 1020, 1021, 1052, 1051
1022, 1021, 1022, 1053, 1052
1023, 1022, 1023, 1054, 1053
1024, 1054, 1024, 1055, 1085
1025, 1024, 1025, 1056, 1055
1026, 1025, 1026, 1057, 1056
1027, 1026, 1027, 1058, 1057
1028, 1027, 1028, 1059, 1058
1029, 1028, 1029, 1060, 1059
1030, 1029, 1030, 1061, 1060
1031, 1030, 1031, 1062, 1061
1032, 1031, 1032, 1063, 1062
1033, 1032, 1033, 1064, 1063
1034, 1033, 1034, 1065, 1064
1035, 1034, 1035, 1066, 1065
1036, 1035, 1036, 1067, 1066
1037, 1036, 1037, 1068, 1067
1038, 1037, 1038, 1069, 1068
1039, 1038, 1039, 1070, 1069
1040, 1039, 1040, 1071, 1070
1041, 1040, 1041, 1072, 1071
1042, 1041, 1042, 1073, 1072
1043, 1042, 1043, 1074, 1073
1044, 1043, 1044, 1075, 1074
1045, 1044, 1045, 1076, 1075
1046, 1045, 1046, 1077, 1076
1047, 1046, 1047, 1078, 1077
1048, 1047, 1048, 1079, 1078
1049, 1048, 1049, 1080, 1079
1050, 1049, 1050, 1081, 1080
1051, 1050, 1051, 1082, 1081
1052, 1051, 1052, 1083, 1082
1053, 1052, 1053, 1084, 1083
1054, 1053, 1054, 1085, 1084
1055, 1085, 1055, 1086, 1116
1056, 1055, 1056, 1087, 1086
1057, 1056, 1057, 1088, 1087
1058, 1057, 1058, 1089, 1088
1059, 1058, 1059, 1090, 1089
1060, 1059, 1060, 1091, 1090
1061, 1060, 1061, 1092, 1091
1062, 1061, 1062, 1093, 1092
1063, 1062, 1063, 1094, 1093
1064, 1063, 1064, 1095, 1094
1065, 1064, 1065, 1096, 1095
1066, 1065, 1066, 1097, 1096
1067, 1066, 1067, 1098, 1097
1068, 1067, 1068, 1099, 1098
1069, 1068, 1069, 1100, 1099
1070, 1069, 1070, 1101, 1100
1071, 1070, 1071, 1102, 1101
1072, 1071, 1072, 1103, 1102
1073, 1072, 1073, 1104, 1103
1074, 1073, 1074, 1105, 1104
1075, 1074, 1075, 1106, 1105
1076, 1075, 1076, 1107, 1106
1077, 1076, 1077, 1108, 1107
1078, 1077, 1078, 1109, 1108
1079, 1078, 1079, 1110, 1109
1080, 1079, 1080, 1111, 1110
1081, 1080, 1081, 1112, 1111
1082, 1081, 1082, 1113, 1112
1083, 1082, 1083, 1114, 1113
1084, 1083, 1084, 1115, 1114
1085, 1084, 1085, 1116, 1115
*Orientation, name=Ori-1
1., 0., 0., 0., 1., 0.
1, 0.
** Region: (CompositeLayup-1-1: Generated From Layup)
*Elset, elset=CompositeLayup-1-1, generate
    1,  1085,     1
** Section: CompositeLayup-1-1
*Shell Section, elset=CompositeLayup-1-1, composite, orientation=Ori-1, density=0., layup=CompositeLayup-1
0.279775, 3, Composite, 90., Ply-1
0.279775, 3, Composite, 90., Ply-2
0.279775, 3, Composite, 90., Ply-3
0.279775, 3, Composite, 90., Ply-4
0.279775, 3, Composite, 22.504, Ply-5
0.279775, 3, Composite, -22.504, Ply-6
0.279775, 3, Composite, 23.545, Ply-7
0.279775, 3, Composite, -23.545, Ply-8
0.279775, 3, Composite, 22.504, Ply-9
0.279775, 3, Composite, -22.504, Ply-10
0.279775, 3, Composite, 23.545, Ply-11
0.279775, 3, Composite, -23.545, Ply-12
0.279775, 3, Composite, 22.504, Ply-13
0.279775, 3, Composite, -22.504, Ply-14
0.279775, 3, Composite, 23.545, Ply-15
0.279775, 3, Composite, -23.545, Ply-16
0.279775, 3, Composite, 22.504, Ply-17
0.279775, 3, Composite, -22.504, Ply-18
0.279775, 3, Composite, 23.545, Ply-19
0.279775, 3, Composite, -23.545, Ply-20
0.279775, 3, Composite, 22.504, Ply-21
0.279775, 3, Composite, -22.504, Ply-22
0.279775, 3, Composite, 23.545, Ply-23
0.279775, 3, Composite, -23.545, Ply-24
0.279775, 3, Composite, 22.504, Ply-25
0.279775, 3, Composite, -22.504, Ply-26
0.279775, 3, Composite, 23.545, Ply-27
0.279775, 3, Composite, -23.545, Ply-28
0.279775, 3, Composite, 22.504, Ply-29
0.279775, 3, Composite, -22.504, Ply-30
0.279775, 3, Composite, 23.545, Ply-31
0.279775, 3, Composite, -23.545, Ply-32
0.279775, 3, Composite, 22.504, Ply-33
0.279775, 3, Composite, -22.504, Ply-34
0.279775, 3, Composite, 23.545, Ply-35
0.279775, 3, Composite, -23.545, Ply-36
0.279775, 3, Composite, 90., Ply-37
0.279775, 3, Composite, 90., Ply-38
0.279775, 3, Composite, 90., Ply-39
0.279775, 3, Composite, 90., Ply-40
*End Part
**
**
** ASSEMBLY
**
*Assembly, name=Assembly
**
*Instance, name=CompositeHull-1, part=CompositeHull
*End Instance
**
*Nset, nset=_PickedSet5, internal, instance=CompositeHull-1, generate
  1,  31,   1
*Elset, elset=_PickedSet5, internal, instance=CompositeHull-1, generate
  1,  31,   1
*Nset, nset=_PickedSet6, internal, instance=CompositeHull-1, generate
 1086,  1116,     1
*Elset, elset=_PickedSet6, internal, instance=CompositeHull-1, generate
 1055,  1085,     1
*Elset, elset=__PickedSurf7_SPOS, internal, instance=CompositeHull-1, generate
    1,  1085,     1
*Surface, type=ELEMENT, name=_PickedSurf7, internal
__PickedSurf7_SPOS, SPOS
*End Assembly
**
** MATERIALS
**
*Material, name=Composite
*Density
 1.55e-09,
*Elastic, type=LAMINA
102000.,7000., 0.16,3350.,3350.,2680.
*Fail Stress
1400.,1050.,  28., 105.,  75.,   0.,   0.
**
** BOUNDARY CONDITIONS
**
** Name: BC-End-0 Type: �Գ�/���Գ�/��ȫ�̶�
*Boundary
_PickedSet5, ENCASTRE
** Name: BC-End-1 Type: �Գ�/���Գ�/��ȫ�̶�
*Boundary
_PickedSet6, ENCASTRE
** ----------------------------------------------------------------
**
** STEP: Step-1
**
*Imperfection, file=C5, step=1
1, 0.387960953
*Step, name=Step-1, nlgeom=YES, inc=220
*Static, riks
0.01, 1., 1e-10, 0.1, ,
**
** LOADS
**
** Name: ExternalPressure   Type: Pressure
*Dsload
_PickedSurf7, P, 30.
**
** OUTPUT REQUESTS
**
*Restart, write, frequency=0
**
** FIELD OUTPUT: F-Output-1
**
*Output, field, variable=PRESELECT
**
** HISTORY OUTPUT: H-Output-1
**
*Output, history, variable=PRESELECT
*End Step
