*Heading
 CSDM_cph pressure hull linear buckling
** Job name: C1 Model name: CPH_Model
** Generated by: Abaqus/CAE 2023
*Preprint, echo=NO, model=NO, history=NO, contact=NO
**
** PARTS
**
*Part, name=CompositeHull
*Node
      1,    94.902092,           0.,  -12.4940977
      2,   92.4593887,           0.,  -24.7744179
      3,   88.4346695,           0.,  -36.6308403
      4,   82.8968201,           0.,  -47.8605003
      5,   75.9405746,           0.,  -58.2712517
      6,    67.684967,           0.,   -67.684967
      7,   58.2712517,           0.,  -75.9405746
      8,   47.8605003,           0.,  -82.8968201
      9,   36.6308403,           0.,  -88.4346695
     10,   24.7744179,           0.,  -92.4593887
     11,   12.4940977,           0.,   -94.902092
     12,           0.,           0.,  -95.7210007
     13,  -12.4940977,           0.,   -94.902092
     14,  -24.7744179,           0.,  -92.4593887
     15,  -36.6308403,           0.,  -88.4346695
     16,  -47.8605003,           0.,  -82.8968201
     17,  -58.2712517,           0.,  -75.9405746
     18,   -67.684967,           0.,   -67.684967
     19,  -75.9405746,           0.,  -58.2712517
     20,  -82.8968201,           0.,  -47.8605003
     21,  -88.4346695,           0.,  -36.6308403
     22,  -92.4593887,           0.,  -24.7744179
     23,   -94.902092,           0.,  -12.4940977
     24,  -95.7210007,           0.,           0.
     25,   -94.902092,           0.,   12.4940977
     26,  -92.4593887,           0.,   24.7744179
     27,  -88.4346695,           0.,   36.6308403
     28,  -82.8968201,           0.,   47.8605003
     29,  -75.9405746,           0.,   58.2712517
     30,   -67.684967,           0.,    67.684967
     31,  -58.2712517,           0.,   75.9405746
     32,  -47.8605003,           0.,   82.8968201
     33,  -36.6308403,           0.,   88.4346695
     34,  -24.7744179,           0.,   92.4593887
     35,  -12.4940977,           0.,    94.902092
     36,           0.,           0.,   95.7210007
     37,   12.4940977,           0.,    94.902092
     38,   24.7744179,           0.,   92.4593887
     39,   36.6308403,           0.,   88.4346695
     40,   47.8605003,           0.,   82.8968201
     41,   58.2712517,           0.,   75.9405746
     42,    67.684967,           0.,    67.684967
     43,   75.9405746,           0.,   58.2712517
     44,   82.8968201,           0.,   47.8605003
     45,   88.4346695,           0.,   36.6308403
     46,   92.4593887,           0.,   24.7744179
     47,    94.902092,           0.,   12.4940977
     48,   95.7210007,           0.,           0.
     49,    94.902092,   12.5798664,  -12.4940977
     50,   92.4593887,   12.5798664,  -24.7744179
     51,   88.4346695,   12.5798664,  -36.6308403
     52,   82.8968201,   12.5798664,  -47.8605003
     53,   75.9405746,   12.5798664,  -58.2712517
     54,    67.684967,   12.5798664,   -67.684967
     55,   58.2712517,   12.5798664,  -75.9405746
     56,   47.8605003,   12.5798664,  -82.8968201
     57,   36.6308403,   12.5798664,  -88.4346695
     58,   24.7744179,   12.5798664,  -92.4593887
     59,   12.4940977,   12.5798664,   -94.902092
     60,           0.,   12.5798664,  -95.7210007
     61,  -12.4940977,   12.5798664,   -94.902092
     62,  -24.7744179,   12.5798664,  -92.4593887
     63,  -36.6308403,   12.5798664,  -88.4346695
     64,  -47.8605003,   12.5798664,  -82.8968201
     65,  -58.2712517,   12.5798664,  -75.9405746
     66,   -67.684967,   12.5798664,   -67.684967
     67,  -75.9405746,   12.5798664,  -58.2712517
     68,  -82.8968201,   12.5798664,  -47.8605003
     69,  -88.4346695,   12.5798664,  -36.6308403
     70,  -92.4593887,   12.5798664,  -24.7744179
     71,   -94.902092,   12.5798664,  -12.4940977
     72,  -95.7210007,   12.5798664,           0.
     73,   -94.902092,   12.5798664,   12.4940977
     74,  -92.4593887,   12.5798664,   24.7744179
     75,  -88.4346695,   12.5798664,   36.6308403
     76,  -82.8968201,   12.5798664,   47.8605003
     77,  -75.9405746,   12.5798664,   58.2712517
     78,   -67.684967,   12.5798664,    67.684967
     79,  -58.2712517,   12.5798664,   75.9405746
     80,  -47.8605003,   12.5798664,   82.8968201
     81,  -36.6308403,   12.5798664,   88.4346695
     82,  -24.7744179,   12.5798664,   92.4593887
     83,  -12.4940977,   12.5798664,    94.902092
     84,           0.,   12.5798664,   95.7210007
     85,   12.4940977,   12.5798664,    94.902092
     86,   24.7744179,   12.5798664,   92.4593887
     87,   36.6308403,   12.5798664,   88.4346695
     88,   47.8605003,   12.5798664,   82.8968201
     89,   58.2712517,   12.5798664,   75.9405746
     90,    67.684967,   12.5798664,    67.684967
     91,   75.9405746,   12.5798664,   58.2712517
     92,   82.8968201,   12.5798664,   47.8605003
     93,   88.4346695,   12.5798664,   36.6308403
     94,   92.4593887,   12.5798664,   24.7744179
     95,    94.902092,   12.5798664,   12.4940977
     96,   95.7210007,   12.5798664,           0.
     97,    94.902092,   25.1597328,  -12.4940977
     98,   92.4593887,   25.1597328,  -24.7744179
     99,   88.4346695,   25.1597328,  -36.6308403
    100,   82.8968201,   25.1597328,  -47.8605003
    101,   75.9405746,   25.1597328,  -58.2712517
    102,    67.684967,   25.1597328,   -67.684967
    103,   58.2712517,   25.1597328,  -75.9405746
    104,   47.8605003,   25.1597328,  -82.8968201
    105,   36.6308403,   25.1597328,  -88.4346695
    106,   24.7744179,   25.1597328,  -92.4593887
    107,   12.4940977,   25.1597328,   -94.902092
    108,           0.,   25.1597328,  -95.7210007
    109,  -12.4940977,   25.1597328,   -94.902092
    110,  -24.7744179,   25.1597328,  -92.4593887
    111,  -36.6308403,   25.1597328,  -88.4346695
    112,  -47.8605003,   25.1597328,  -82.8968201
    113,  -58.2712517,   25.1597328,  -75.9405746
    114,   -67.684967,   25.1597328,   -67.684967
    115,  -75.9405746,   25.1597328,  -58.2712517
    116,  -82.8968201,   25.1597328,  -47.8605003
    117,  -88.4346695,   25.1597328,  -36.6308403
    118,  -92.4593887,   25.1597328,  -24.7744179
    119,   -94.902092,   25.1597328,  -12.4940977
    120,  -95.7210007,   25.1597328,           0.
    121,   -94.902092,   25.1597328,   12.4940977
    122,  -92.4593887,   25.1597328,   24.7744179
    123,  -88.4346695,   25.1597328,   36.6308403
    124,  -82.8968201,   25.1597328,   47.8605003
    125,  -75.9405746,   25.1597328,   58.2712517
    126,   -67.684967,   25.1597328,    67.684967
    127,  -58.2712517,   25.1597328,   75.9405746
    128,  -47.8605003,   25.1597328,   82.8968201
    129,  -36.6308403,   25.1597328,   88.4346695
    130,  -24.7744179,   25.1597328,   92.4593887
    131,  -12.4940977,   25.1597328,    94.902092
    132,           0.,   25.1597328,   95.7210007
    133,   12.4940977,   25.1597328,    94.902092
    134,   24.7744179,   25.1597328,   92.4593887
    135,   36.6308403,   25.1597328,   88.4346695
    136,   47.8605003,   25.1597328,   82.8968201
    137,   58.2712517,   25.1597328,   75.9405746
    138,    67.684967,   25.1597328,    67.684967
    139,   75.9405746,   25.1597328,   58.2712517
    140,   82.8968201,   25.1597328,   47.8605003
    141,   88.4346695,   25.1597328,   36.6308403
    142,   92.4593887,   25.1597328,   24.7744179
    143,    94.902092,   25.1597328,   12.4940977
    144,   95.7210007,   25.1597328,           0.
    145,    94.902092,   37.7396011,  -12.4940977
    146,   92.4593887,   37.7396011,  -24.7744179
    147,   88.4346695,   37.7396011,  -36.6308403
    148,   82.8968201,   37.7396011,  -47.8605003
    149,   75.9405746,   37.7396011,  -58.2712517
    150,    67.684967,   37.7396011,   -67.684967
    151,   58.2712517,   37.7396011,  -75.9405746
    152,   47.8605003,   37.7396011,  -82.8968201
    153,   36.6308403,   37.7396011,  -88.4346695
    154,   24.7744179,   37.7396011,  -92.4593887
    155,   12.4940977,   37.7396011,   -94.902092
    156,           0.,   37.7396011,  -95.7210007
    157,  -12.4940977,   37.7396011,   -94.902092
    158,  -24.7744179,   37.7396011,  -92.4593887
    159,  -36.6308403,   37.7396011,  -88.4346695
    160,  -47.8605003,   37.7396011,  -82.8968201
    161,  -58.2712517,   37.7396011,  -75.9405746
    162,   -67.684967,   37.7396011,   -67.684967
    163,  -75.9405746,   37.7396011,  -58.2712517
    164,  -82.8968201,   37.7396011,  -47.8605003
    165,  -88.4346695,   37.7396011,  -36.6308403
    166,  -92.4593887,   37.7396011,  -24.7744179
    167,   -94.902092,   37.7396011,  -12.4940977
    168,  -95.7210007,   37.7396011,           0.
    169,   -94.902092,   37.7396011,   12.4940977
    170,  -92.4593887,   37.7396011,   24.7744179
    171,  -88.4346695,   37.7396011,   36.6308403
    172,  -82.8968201,   37.7396011,   47.8605003
    173,  -75.9405746,   37.7396011,   58.2712517
    174,   -67.684967,   37.7396011,    67.684967
    175,  -58.2712517,   37.7396011,   75.9405746
    176,  -47.8605003,   37.7396011,   82.8968201
    177,  -36.6308403,   37.7396011,   88.4346695
    178,  -24.7744179,   37.7396011,   92.4593887
    179,  -12.4940977,   37.7396011,    94.902092
    180,           0.,   37.7396011,   95.7210007
    181,   12.4940977,   37.7396011,    94.902092
    182,   24.7744179,   37.7396011,   92.4593887
    183,   36.6308403,   37.7396011,   88.4346695
    184,   47.8605003,   37.7396011,   82.8968201
    185,   58.2712517,   37.7396011,   75.9405746
    186,    67.684967,   37.7396011,    67.684967
    187,   75.9405746,   37.7396011,   58.2712517
    188,   82.8968201,   37.7396011,   47.8605003
    189,   88.4346695,   37.7396011,   36.6308403
    190,   92.4593887,   37.7396011,   24.7744179
    191,    94.902092,   37.7396011,   12.4940977
    192,   95.7210007,   37.7396011,           0.
    193,    94.902092,   50.3194656,  -12.4940977
    194,   92.4593887,   50.3194656,  -24.7744179
    195,   88.4346695,   50.3194656,  -36.6308403
    196,   82.8968201,   50.3194656,  -47.8605003
    197,   75.9405746,   50.3194656,  -58.2712517
    198,    67.684967,   50.3194656,   -67.684967
    199,   58.2712517,   50.3194656,  -75.9405746
    200,   47.8605003,   50.3194656,  -82.8968201
    201,   36.6308403,   50.3194656,  -88.4346695
    202,   24.7744179,   50.3194656,  -92.4593887
    203,   12.4940977,   50.3194656,   -94.902092
    204,           0.,   50.3194656,  -95.7210007
    205,  -12.4940977,   50.3194656,   -94.902092
    206,  -24.7744179,   50.3194656,  -92.4593887
    207,  -36.6308403,   50.3194656,  -88.4346695
    208,  -47.8605003,   50.3194656,  -82.8968201
    209,  -58.2712517,   50.3194656,  -75.9405746
    210,   -67.684967,   50.3194656,   -67.684967
    211,  -75.9405746,   50.3194656,  -58.2712517
    212,  -82.8968201,   50.3194656,  -47.8605003
    213,  -88.4346695,   50.3194656,  -36.6308403
    214,  -92.4593887,   50.3194656,  -24.7744179
    215,   -94.902092,   50.3194656,  -12.4940977
    216,  -95.7210007,   50.3194656,           0.
    217,   -94.902092,   50.3194656,   12.4940977
    218,  -92.4593887,   50.3194656,   24.7744179
    219,  -88.4346695,   50.3194656,   36.6308403
    220,  -82.8968201,   50.3194656,   47.8605003
    221,  -75.9405746,   50.3194656,   58.2712517
    222,   -67.684967,   50.3194656,    67.684967
    223,  -58.2712517,   50.3194656,   75.9405746
    224,  -47.8605003,   50.3194656,   82.8968201
    225,  -36.6308403,   50.3194656,   88.4346695
    226,  -24.7744179,   50.3194656,   92.4593887
    227,  -12.4940977,   50.3194656,    94.902092
    228,           0.,   50.3194656,   95.7210007
    229,   12.4940977,   50.3194656,    94.902092
    230,   24.7744179,   50.3194656,   92.4593887
    231,   36.6308403,   50.3194656,   88.4346695
    232,   47.8605003,   50.3194656,   82.8968201
    233,   58.2712517,   50.3194656,   75.9405746
    234,    67.684967,   50.3194656,    67.684967
    235,   75.9405746,   50.3194656,   58.2712517
    236,   82.8968201,   50.3194656,   47.8605003
    237,   88.4346695,   50.3194656,   36.6308403
    238,   92.4593887,   50.3194656,   24.7744179
    239,    94.902092,   50.3194656,   12.4940977
    240,   95.7210007,   50.3194656,           0.
    241,    94.902092,    62.899334,  -12.4940977
    242,   92.4593887,    62.899334,  -24.7744179
    243,   88.4346695,    62.899334,  -36.6308403
    244,   82.8968201,    62.899334,  -47.8605003
    245,   75.9405746,    62.899334,  -58.2712517
    246,    67.684967,    62.899334,   -67.684967
    247,   58.2712517,    62.899334,  -75.9405746
    248,   47.8605003,    62.899334,  -82.8968201
    249,   36.6308403,    62.899334,  -88.4346695
    250,   24.7744179,    62.899334,  -92.4593887
    251,   12.4940977,    62.899334,   -94.902092
    252,           0.,    62.899334,  -95.7210007
    253,  -12.4940977,    62.899334,   -94.902092
    254,  -24.7744179,    62.899334,  -92.4593887
    255,  -36.6308403,    62.899334,  -88.4346695
    256,  -47.8605003,    62.899334,  -82.8968201
    257,  -58.2712517,    62.899334,  -75.9405746
    258,   -67.684967,    62.899334,   -67.684967
    259,  -75.9405746,    62.899334,  -58.2712517
    260,  -82.8968201,    62.899334,  -47.8605003
    261,  -88.4346695,    62.899334,  -36.6308403
    262,  -92.4593887,    62.899334,  -24.7744179
    263,   -94.902092,    62.899334,  -12.4940977
    264,  -95.7210007,    62.899334,           0.
    265,   -94.902092,    62.899334,   12.4940977
    266,  -92.4593887,    62.899334,   24.7744179
    267,  -88.4346695,    62.899334,   36.6308403
    268,  -82.8968201,    62.899334,   47.8605003
    269,  -75.9405746,    62.899334,   58.2712517
    270,   -67.684967,    62.899334,    67.684967
    271,  -58.2712517,    62.899334,   75.9405746
    272,  -47.8605003,    62.899334,   82.8968201
    273,  -36.6308403,    62.899334,   88.4346695
    274,  -24.7744179,    62.899334,   92.4593887
    275,  -12.4940977,    62.899334,    94.902092
    276,           0.,    62.899334,   95.7210007
    277,   12.4940977,    62.899334,    94.902092
    278,   24.7744179,    62.899334,   92.4593887
    279,   36.6308403,    62.899334,   88.4346695
    280,   47.8605003,    62.899334,   82.8968201
    281,   58.2712517,    62.899334,   75.9405746
    282,    67.684967,    62.899334,    67.684967
    283,   75.9405746,    62.899334,   58.2712517
    284,   82.8968201,    62.899334,   47.8605003
    285,   88.4346695,    62.899334,   36.6308403
    286,   92.4593887,    62.899334,   24.7744179
    287,    94.902092,    62.899334,   12.4940977
    288,   95.7210007,    62.899334,           0.
    289,    94.902092,   75.4792023,  -12.4940977
    290,   92.4593887,   75.4792023,  -24.7744179
    291,   88.4346695,   75.4792023,  -36.6308403
    292,   82.8968201,   75.4792023,  -47.8605003
    293,   75.9405746,   75.4792023,  -58.2712517
    294,    67.684967,   75.4792023,   -67.684967
    295,   58.2712517,   75.4792023,  -75.9405746
    296,   47.8605003,   75.4792023,  -82.8968201
    297,   36.6308403,   75.4792023,  -88.4346695
    298,   24.7744179,   75.4792023,  -92.4593887
    299,   12.4940977,   75.4792023,   -94.902092
    300,           0.,   75.4792023,  -95.7210007
    301,  -12.4940977,   75.4792023,   -94.902092
    302,  -24.7744179,   75.4792023,  -92.4593887
    303,  -36.6308403,   75.4792023,  -88.4346695
    304,  -47.8605003,   75.4792023,  -82.8968201
    305,  -58.2712517,   75.4792023,  -75.9405746
    306,   -67.684967,   75.4792023,   -67.684967
    307,  -75.9405746,   75.4792023,  -58.2712517
    308,  -82.8968201,   75.4792023,  -47.8605003
    309,  -88.4346695,   75.4792023,  -36.6308403
    310,  -92.4593887,   75.4792023,  -24.7744179
    311,   -94.902092,   75.4792023,  -12.4940977
    312,  -95.7210007,   75.4792023,           0.
    313,   -94.902092,   75.4792023,   12.4940977
    314,  -92.4593887,   75.4792023,   24.7744179
    315,  -88.4346695,   75.4792023,   36.6308403
    316,  -82.8968201,   75.4792023,   47.8605003
    317,  -75.9405746,   75.4792023,   58.2712517
    318,   -67.684967,   75.4792023,    67.684967
    319,  -58.2712517,   75.4792023,   75.9405746
    320,  -47.8605003,   75.4792023,   82.8968201
    321,  -36.6308403,   75.4792023,   88.4346695
    322,  -24.7744179,   75.4792023,   92.4593887
    323,  -12.4940977,   75.4792023,    94.902092
    324,           0.,   75.4792023,   95.7210007
    325,   12.4940977,   75.4792023,    94.902092
    326,   24.7744179,   75.4792023,   92.4593887
    327,   36.6308403,   75.4792023,   88.4346695
    328,   47.8605003,   75.4792023,   82.8968201
    329,   58.2712517,   75.4792023,   75.9405746
    330,    67.684967,   75.4792023,    67.684967
    331,   75.9405746,   75.4792023,   58.2712517
    332,   82.8968201,   75.4792023,   47.8605003
    333,   88.4346695,   75.4792023,   36.6308403
    334,   92.4593887,   75.4792023,   24.7744179
    335,    94.902092,   75.4792023,   12.4940977
    336,   95.7210007,   75.4792023,           0.
    337,    94.902092,   88.0590668,  -12.4940977
    338,   92.4593887,   88.0590668,  -24.7744179
    339,   88.4346695,   88.0590668,  -36.6308403
    340,   82.8968201,   88.0590668,  -47.8605003
    341,   75.9405746,   88.0590668,  -58.2712517
    342,    67.684967,   88.0590668,   -67.684967
    343,   58.2712517,   88.0590668,  -75.9405746
    344,   47.8605003,   88.0590668,  -82.8968201
    345,   36.6308403,   88.0590668,  -88.4346695
    346,   24.7744179,   88.0590668,  -92.4593887
    347,   12.4940977,   88.0590668,   -94.902092
    348,           0.,   88.0590668,  -95.7210007
    349,  -12.4940977,   88.0590668,   -94.902092
    350,  -24.7744179,   88.0590668,  -92.4593887
    351,  -36.6308403,   88.0590668,  -88.4346695
    352,  -47.8605003,   88.0590668,  -82.8968201
    353,  -58.2712517,   88.0590668,  -75.9405746
    354,   -67.684967,   88.0590668,   -67.684967
    355,  -75.9405746,   88.0590668,  -58.2712517
    356,  -82.8968201,   88.0590668,  -47.8605003
    357,  -88.4346695,   88.0590668,  -36.6308403
    358,  -92.4593887,   88.0590668,  -24.7744179
    359,   -94.902092,   88.0590668,  -12.4940977
    360,  -95.7210007,   88.0590668,           0.
    361,   -94.902092,   88.0590668,   12.4940977
    362,  -92.4593887,   88.0590668,   24.7744179
    363,  -88.4346695,   88.0590668,   36.6308403
    364,  -82.8968201,   88.0590668,   47.8605003
    365,  -75.9405746,   88.0590668,   58.2712517
    366,   -67.684967,   88.0590668,    67.684967
    367,  -58.2712517,   88.0590668,   75.9405746
    368,  -47.8605003,   88.0590668,   82.8968201
    369,  -36.6308403,   88.0590668,   88.4346695
    370,  -24.7744179,   88.0590668,   92.4593887
    371,  -12.4940977,   88.0590668,    94.902092
    372,           0.,   88.0590668,   95.7210007
    373,   12.4940977,   88.0590668,    94.902092
    374,   24.7744179,   88.0590668,   92.4593887
    375,   36.6308403,   88.0590668,   88.4346695
    376,   47.8605003,   88.0590668,   82.8968201
    377,   58.2712517,   88.0590668,   75.9405746
    378,    67.684967,   88.0590668,    67.684967
    379,   75.9405746,   88.0590668,   58.2712517
    380,   82.8968201,   88.0590668,   47.8605003
    381,   88.4346695,   88.0590668,   36.6308403
    382,   92.4593887,   88.0590668,   24.7744179
    383,    94.902092,   88.0590668,   12.4940977
    384,   95.7210007,   88.0590668,           0.
    385,    94.902092,   100.638931,  -12.4940977
    386,   92.4593887,   100.638931,  -24.7744179
    387,   88.4346695,   100.638931,  -36.6308403
    388,   82.8968201,   100.638931,  -47.8605003
    389,   75.9405746,   100.638931,  -58.2712517
    390,    67.684967,   100.638931,   -67.684967
    391,   58.2712517,   100.638931,  -75.9405746
    392,   47.8605003,   100.638931,  -82.8968201
    393,   36.6308403,   100.638931,  -88.4346695
    394,   24.7744179,   100.638931,  -92.4593887
    395,   12.4940977,   100.638931,   -94.902092
    396,           0.,   100.638931,  -95.7210007
    397,  -12.4940977,   100.638931,   -94.902092
    398,  -24.7744179,   100.638931,  -92.4593887
    399,  -36.6308403,   100.638931,  -88.4346695
    400,  -47.8605003,   100.638931,  -82.8968201
    401,  -58.2712517,   100.638931,  -75.9405746
    402,   -67.684967,   100.638931,   -67.684967
    403,  -75.9405746,   100.638931,  -58.2712517
    404,  -82.8968201,   100.638931,  -47.8605003
    405,  -88.4346695,   100.638931,  -36.6308403
    406,  -92.4593887,   100.638931,  -24.7744179
    407,   -94.902092,   100.638931,  -12.4940977
    408,  -95.7210007,   100.638931,           0.
    409,   -94.902092,   100.638931,   12.4940977
    410,  -92.4593887,   100.638931,   24.7744179
    411,  -88.4346695,   100.638931,   36.6308403
    412,  -82.8968201,   100.638931,   47.8605003
    413,  -75.9405746,   100.638931,   58.2712517
    414,   -67.684967,   100.638931,    67.684967
    415,  -58.2712517,   100.638931,   75.9405746
    416,  -47.8605003,   100.638931,   82.8968201
    417,  -36.6308403,   100.638931,   88.4346695
    418,  -24.7744179,   100.638931,   92.4593887
    419,  -12.4940977,   100.638931,    94.902092
    420,           0.,   100.638931,   95.7210007
    421,   12.4940977,   100.638931,    94.902092
    422,   24.7744179,   100.638931,   92.4593887
    423,   36.6308403,   100.638931,   88.4346695
    424,   47.8605003,   100.638931,   82.8968201
    425,   58.2712517,   100.638931,   75.9405746
    426,    67.684967,   100.638931,    67.684967
    427,   75.9405746,   100.638931,   58.2712517
    428,   82.8968201,   100.638931,   47.8605003
    429,   88.4346695,   100.638931,   36.6308403
    430,   92.4593887,   100.638931,   24.7744179
    431,    94.902092,   100.638931,   12.4940977
    432,   95.7210007,   100.638931,           0.
    433,    94.902092,   113.218803,  -12.4940977
    434,   92.4593887,   113.218803,  -24.7744179
    435,   88.4346695,   113.218803,  -36.6308403
    436,   82.8968201,   113.218803,  -47.8605003
    437,   75.9405746,   113.218803,  -58.2712517
    438,    67.684967,   113.218803,   -67.684967
    439,   58.2712517,   113.218803,  -75.9405746
    440,   47.8605003,   113.218803,  -82.8968201
    441,   36.6308403,   113.218803,  -88.4346695
    442,   24.7744179,   113.218803,  -92.4593887
    443,   12.4940977,   113.218803,   -94.902092
    444,           0.,   113.218803,  -95.7210007
    445,  -12.4940977,   113.218803,   -94.902092
    446,  -24.7744179,   113.218803,  -92.4593887
    447,  -36.6308403,   113.218803,  -88.4346695
    448,  -47.8605003,   113.218803,  -82.8968201
    449,  -58.2712517,   113.218803,  -75.9405746
    450,   -67.684967,   113.218803,   -67.684967
    451,  -75.9405746,   113.218803,  -58.2712517
    452,  -82.8968201,   113.218803,  -47.8605003
    453,  -88.4346695,   113.218803,  -36.6308403
    454,  -92.4593887,   113.218803,  -24.7744179
    455,   -94.902092,   113.218803,  -12.4940977
    456,  -95.7210007,   113.218803,           0.
    457,   -94.902092,   113.218803,   12.4940977
    458,  -92.4593887,   113.218803,   24.7744179
    459,  -88.4346695,   113.218803,   36.6308403
    460,  -82.8968201,   113.218803,   47.8605003
    461,  -75.9405746,   113.218803,   58.2712517
    462,   -67.684967,   113.218803,    67.684967
    463,  -58.2712517,   113.218803,   75.9405746
    464,  -47.8605003,   113.218803,   82.8968201
    465,  -36.6308403,   113.218803,   88.4346695
    466,  -24.7744179,   113.218803,   92.4593887
    467,  -12.4940977,   113.218803,    94.902092
    468,           0.,   113.218803,   95.7210007
    469,   12.4940977,   113.218803,    94.902092
    470,   24.7744179,   113.218803,   92.4593887
    471,   36.6308403,   113.218803,   88.4346695
    472,   47.8605003,   113.218803,   82.8968201
    473,   58.2712517,   113.218803,   75.9405746
    474,    67.684967,   113.218803,    67.684967
    475,   75.9405746,   113.218803,   58.2712517
    476,   82.8968201,   113.218803,   47.8605003
    477,   88.4346695,   113.218803,   36.6308403
    478,   92.4593887,   113.218803,   24.7744179
    479,    94.902092,   113.218803,   12.4940977
    480,   95.7210007,   113.218803,           0.
    481,    94.902092,   125.798668,  -12.4940977
    482,   92.4593887,   125.798668,  -24.7744179
    483,   88.4346695,   125.798668,  -36.6308403
    484,   82.8968201,   125.798668,  -47.8605003
    485,   75.9405746,   125.798668,  -58.2712517
    486,    67.684967,   125.798668,   -67.684967
    487,   58.2712517,   125.798668,  -75.9405746
    488,   47.8605003,   125.798668,  -82.8968201
    489,   36.6308403,   125.798668,  -88.4346695
    490,   24.7744179,   125.798668,  -92.4593887
    491,   12.4940977,   125.798668,   -94.902092
    492,           0.,   125.798668,  -95.7210007
    493,  -12.4940977,   125.798668,   -94.902092
    494,  -24.7744179,   125.798668,  -92.4593887
    495,  -36.6308403,   125.798668,  -88.4346695
    496,  -47.8605003,   125.798668,  -82.8968201
    497,  -58.2712517,   125.798668,  -75.9405746
    498,   -67.684967,   125.798668,   -67.684967
    499,  -75.9405746,   125.798668,  -58.2712517
    500,  -82.8968201,   125.798668,  -47.8605003
    501,  -88.4346695,   125.798668,  -36.6308403
    502,  -92.4593887,   125.798668,  -24.7744179
    503,   -94.902092,   125.798668,  -12.4940977
    504,  -95.7210007,   125.798668,           0.
    505,   -94.902092,   125.798668,   12.4940977
    506,  -92.4593887,   125.798668,   24.7744179
    507,  -88.4346695,   125.798668,   36.6308403
    508,  -82.8968201,   125.798668,   47.8605003
    509,  -75.9405746,   125.798668,   58.2712517
    510,   -67.684967,   125.798668,    67.684967
    511,  -58.2712517,   125.798668,   75.9405746
    512,  -47.8605003,   125.798668,   82.8968201
    513,  -36.6308403,   125.798668,   88.4346695
    514,  -24.7744179,   125.798668,   92.4593887
    515,  -12.4940977,   125.798668,    94.902092
    516,           0.,   125.798668,   95.7210007
    517,   12.4940977,   125.798668,    94.902092
    518,   24.7744179,   125.798668,   92.4593887
    519,   36.6308403,   125.798668,   88.4346695
    520,   47.8605003,   125.798668,   82.8968201
    521,   58.2712517,   125.798668,   75.9405746
    522,    67.684967,   125.798668,    67.684967
    523,   75.9405746,   125.798668,   58.2712517
    524,   82.8968201,   125.798668,   47.8605003
    525,   88.4346695,   125.798668,   36.6308403
    526,   92.4593887,   125.798668,   24.7744179
    527,    94.902092,   125.798668,   12.4940977
    528,   95.7210007,   125.798668,           0.
    529,    94.902092,    138.37854,  -12.4940977
    530,   92.4593887,    138.37854,  -24.7744179
    531,   88.4346695,    138.37854,  -36.6308403
    532,   82.8968201,    138.37854,  -47.8605003
    533,   75.9405746,    138.37854,  -58.2712517
    534,    67.684967,    138.37854,   -67.684967
    535,   58.2712517,    138.37854,  -75.9405746
    536,   47.8605003,    138.37854,  -82.8968201
    537,   36.6308403,    138.37854,  -88.4346695
    538,   24.7744179,    138.37854,  -92.4593887
    539,   12.4940977,    138.37854,   -94.902092
    540,           0.,    138.37854,  -95.7210007
    541,  -12.4940977,    138.37854,   -94.902092
    542,  -24.7744179,    138.37854,  -92.4593887
    543,  -36.6308403,    138.37854,  -88.4346695
    544,  -47.8605003,    138.37854,  -82.8968201
    545,  -58.2712517,    138.37854,  -75.9405746
    546,   -67.684967,    138.37854,   -67.684967
    547,  -75.9405746,    138.37854,  -58.2712517
    548,  -82.8968201,    138.37854,  -47.8605003
    549,  -88.4346695,    138.37854,  -36.6308403
    550,  -92.4593887,    138.37854,  -24.7744179
    551,   -94.902092,    138.37854,  -12.4940977
    552,  -95.7210007,    138.37854,           0.
    553,   -94.902092,    138.37854,   12.4940977
    554,  -92.4593887,    138.37854,   24.7744179
    555,  -88.4346695,    138.37854,   36.6308403
    556,  -82.8968201,    138.37854,   47.8605003
    557,  -75.9405746,    138.37854,   58.2712517
    558,   -67.684967,    138.37854,    67.684967
    559,  -58.2712517,    138.37854,   75.9405746
    560,  -47.8605003,    138.37854,   82.8968201
    561,  -36.6308403,    138.37854,   88.4346695
    562,  -24.7744179,    138.37854,   92.4593887
    563,  -12.4940977,    138.37854,    94.902092
    564,           0.,    138.37854,   95.7210007
    565,   12.4940977,    138.37854,    94.902092
    566,   24.7744179,    138.37854,   92.4593887
    567,   36.6308403,    138.37854,   88.4346695
    568,   47.8605003,    138.37854,   82.8968201
    569,   58.2712517,    138.37854,   75.9405746
    570,    67.684967,    138.37854,    67.684967
    571,   75.9405746,    138.37854,   58.2712517
    572,   82.8968201,    138.37854,   47.8605003
    573,   88.4346695,    138.37854,   36.6308403
    574,   92.4593887,    138.37854,   24.7744179
    575,    94.902092,    138.37854,   12.4940977
    576,   95.7210007,    138.37854,           0.
    577,    94.902092,   150.958405,  -12.4940977
    578,   92.4593887,   150.958405,  -24.7744179
    579,   88.4346695,   150.958405,  -36.6308403
    580,   82.8968201,   150.958405,  -47.8605003
    581,   75.9405746,   150.958405,  -58.2712517
    582,    67.684967,   150.958405,   -67.684967
    583,   58.2712517,   150.958405,  -75.9405746
    584,   47.8605003,   150.958405,  -82.8968201
    585,   36.6308403,   150.958405,  -88.4346695
    586,   24.7744179,   150.958405,  -92.4593887
    587,   12.4940977,   150.958405,   -94.902092
    588,           0.,   150.958405,  -95.7210007
    589,  -12.4940977,   150.958405,   -94.902092
    590,  -24.7744179,   150.958405,  -92.4593887
    591,  -36.6308403,   150.958405,  -88.4346695
    592,  -47.8605003,   150.958405,  -82.8968201
    593,  -58.2712517,   150.958405,  -75.9405746
    594,   -67.684967,   150.958405,   -67.684967
    595,  -75.9405746,   150.958405,  -58.2712517
    596,  -82.8968201,   150.958405,  -47.8605003
    597,  -88.4346695,   150.958405,  -36.6308403
    598,  -92.4593887,   150.958405,  -24.7744179
    599,   -94.902092,   150.958405,  -12.4940977
    600,  -95.7210007,   150.958405,           0.
    601,   -94.902092,   150.958405,   12.4940977
    602,  -92.4593887,   150.958405,   24.7744179
    603,  -88.4346695,   150.958405,   36.6308403
    604,  -82.8968201,   150.958405,   47.8605003
    605,  -75.9405746,   150.958405,   58.2712517
    606,   -67.684967,   150.958405,    67.684967
    607,  -58.2712517,   150.958405,   75.9405746
    608,  -47.8605003,   150.958405,   82.8968201
    609,  -36.6308403,   150.958405,   88.4346695
    610,  -24.7744179,   150.958405,   92.4593887
    611,  -12.4940977,   150.958405,    94.902092
    612,           0.,   150.958405,   95.7210007
    613,   12.4940977,   150.958405,    94.902092
    614,   24.7744179,   150.958405,   92.4593887
    615,   36.6308403,   150.958405,   88.4346695
    616,   47.8605003,   150.958405,   82.8968201
    617,   58.2712517,   150.958405,   75.9405746
    618,    67.684967,   150.958405,    67.684967
    619,   75.9405746,   150.958405,   58.2712517
    620,   82.8968201,   150.958405,   47.8605003
    621,   88.4346695,   150.958405,   36.6308403
    622,   92.4593887,   150.958405,   24.7744179
    623,    94.902092,   150.958405,   12.4940977
    624,   95.7210007,   150.958405,           0.
    625,    94.902092,   163.538269,  -12.4940977
    626,   92.4593887,   163.538269,  -24.7744179
    627,   88.4346695,   163.538269,  -36.6308403
    628,   82.8968201,   163.538269,  -47.8605003
    629,   75.9405746,   163.538269,  -58.2712517
    630,    67.684967,   163.538269,   -67.684967
    631,   58.2712517,   163.538269,  -75.9405746
    632,   47.8605003,   163.538269,  -82.8968201
    633,   36.6308403,   163.538269,  -88.4346695
    634,   24.7744179,   163.538269,  -92.4593887
    635,   12.4940977,   163.538269,   -94.902092
    636,           0.,   163.538269,  -95.7210007
    637,  -12.4940977,   163.538269,   -94.902092
    638,  -24.7744179,   163.538269,  -92.4593887
    639,  -36.6308403,   163.538269,  -88.4346695
    640,  -47.8605003,   163.538269,  -82.8968201
    641,  -58.2712517,   163.538269,  -75.9405746
    642,   -67.684967,   163.538269,   -67.684967
    643,  -75.9405746,   163.538269,  -58.2712517
    644,  -82.8968201,   163.538269,  -47.8605003
    645,  -88.4346695,   163.538269,  -36.6308403
    646,  -92.4593887,   163.538269,  -24.7744179
    647,   -94.902092,   163.538269,  -12.4940977
    648,  -95.7210007,   163.538269,           0.
    649,   -94.902092,   163.538269,   12.4940977
    650,  -92.4593887,   163.538269,   24.7744179
    651,  -88.4346695,   163.538269,   36.6308403
    652,  -82.8968201,   163.538269,   47.8605003
    653,  -75.9405746,   163.538269,   58.2712517
    654,   -67.684967,   163.538269,    67.684967
    655,  -58.2712517,   163.538269,   75.9405746
    656,  -47.8605003,   163.538269,   82.8968201
    657,  -36.6308403,   163.538269,   88.4346695
    658,  -24.7744179,   163.538269,   92.4593887
    659,  -12.4940977,   163.538269,    94.902092
    660,           0.,   163.538269,   95.7210007
    661,   12.4940977,   163.538269,    94.902092
    662,   24.7744179,   163.538269,   92.4593887
    663,   36.6308403,   163.538269,   88.4346695
    664,   47.8605003,   163.538269,   82.8968201
    665,   58.2712517,   163.538269,   75.9405746
    666,    67.684967,   163.538269,    67.684967
    667,   75.9405746,   163.538269,   58.2712517
    668,   82.8968201,   163.538269,   47.8605003
    669,   88.4346695,   163.538269,   36.6308403
    670,   92.4593887,   163.538269,   24.7744179
    671,    94.902092,   163.538269,   12.4940977
    672,   95.7210007,   163.538269,           0.
    673,    94.902092,   176.118134,  -12.4940977
    674,   92.4593887,   176.118134,  -24.7744179
    675,   88.4346695,   176.118134,  -36.6308403
    676,   82.8968201,   176.118134,  -47.8605003
    677,   75.9405746,   176.118134,  -58.2712517
    678,    67.684967,   176.118134,   -67.684967
    679,   58.2712517,   176.118134,  -75.9405746
    680,   47.8605003,   176.118134,  -82.8968201
    681,   36.6308403,   176.118134,  -88.4346695
    682,   24.7744179,   176.118134,  -92.4593887
    683,   12.4940977,   176.118134,   -94.902092
    684,           0.,   176.118134,  -95.7210007
    685,  -12.4940977,   176.118134,   -94.902092
    686,  -24.7744179,   176.118134,  -92.4593887
    687,  -36.6308403,   176.118134,  -88.4346695
    688,  -47.8605003,   176.118134,  -82.8968201
    689,  -58.2712517,   176.118134,  -75.9405746
    690,   -67.684967,   176.118134,   -67.684967
    691,  -75.9405746,   176.118134,  -58.2712517
    692,  -82.8968201,   176.118134,  -47.8605003
    693,  -88.4346695,   176.118134,  -36.6308403
    694,  -92.4593887,   176.118134,  -24.7744179
    695,   -94.902092,   176.118134,  -12.4940977
    696,  -95.7210007,   176.118134,           0.
    697,   -94.902092,   176.118134,   12.4940977
    698,  -92.4593887,   176.118134,   24.7744179
    699,  -88.4346695,   176.118134,   36.6308403
    700,  -82.8968201,   176.118134,   47.8605003
    701,  -75.9405746,   176.118134,   58.2712517
    702,   -67.684967,   176.118134,    67.684967
    703,  -58.2712517,   176.118134,   75.9405746
    704,  -47.8605003,   176.118134,   82.8968201
    705,  -36.6308403,   176.118134,   88.4346695
    706,  -24.7744179,   176.118134,   92.4593887
    707,  -12.4940977,   176.118134,    94.902092
    708,           0.,   176.118134,   95.7210007
    709,   12.4940977,   176.118134,    94.902092
    710,   24.7744179,   176.118134,   92.4593887
    711,   36.6308403,   176.118134,   88.4346695
    712,   47.8605003,   176.118134,   82.8968201
    713,   58.2712517,   176.118134,   75.9405746
    714,    67.684967,   176.118134,    67.684967
    715,   75.9405746,   176.118134,   58.2712517
    716,   82.8968201,   176.118134,   47.8605003
    717,   88.4346695,   176.118134,   36.6308403
    718,   92.4593887,   176.118134,   24.7744179
    719,    94.902092,   176.118134,   12.4940977
    720,   95.7210007,   176.118134,           0.
    721,    94.902092,   188.697998,  -12.4940977
    722,   92.4593887,   188.697998,  -24.7744179
    723,   88.4346695,   188.697998,  -36.6308403
    724,   82.8968201,   188.697998,  -47.8605003
    725,   75.9405746,   188.697998,  -58.2712517
    726,    67.684967,   188.697998,   -67.684967
    727,   58.2712517,   188.697998,  -75.9405746
    728,   47.8605003,   188.697998,  -82.8968201
    729,   36.6308403,   188.697998,  -88.4346695
    730,   24.7744179,   188.697998,  -92.4593887
    731,   12.4940977,   188.697998,   -94.902092
    732,           0.,   188.697998,  -95.7210007
    733,  -12.4940977,   188.697998,   -94.902092
    734,  -24.7744179,   188.697998,  -92.4593887
    735,  -36.6308403,   188.697998,  -88.4346695
    736,  -47.8605003,   188.697998,  -82.8968201
    737,  -58.2712517,   188.697998,  -75.9405746
    738,   -67.684967,   188.697998,   -67.684967
    739,  -75.9405746,   188.697998,  -58.2712517
    740,  -82.8968201,   188.697998,  -47.8605003
    741,  -88.4346695,   188.697998,  -36.6308403
    742,  -92.4593887,   188.697998,  -24.7744179
    743,   -94.902092,   188.697998,  -12.4940977
    744,  -95.7210007,   188.697998,           0.
    745,   -94.902092,   188.697998,   12.4940977
    746,  -92.4593887,   188.697998,   24.7744179
    747,  -88.4346695,   188.697998,   36.6308403
    748,  -82.8968201,   188.697998,   47.8605003
    749,  -75.9405746,   188.697998,   58.2712517
    750,   -67.684967,   188.697998,    67.684967
    751,  -58.2712517,   188.697998,   75.9405746
    752,  -47.8605003,   188.697998,   82.8968201
    753,  -36.6308403,   188.697998,   88.4346695
    754,  -24.7744179,   188.697998,   92.4593887
    755,  -12.4940977,   188.697998,    94.902092
    756,           0.,   188.697998,   95.7210007
    757,   12.4940977,   188.697998,    94.902092
    758,   24.7744179,   188.697998,   92.4593887
    759,   36.6308403,   188.697998,   88.4346695
    760,   47.8605003,   188.697998,   82.8968201
    761,   58.2712517,   188.697998,   75.9405746
    762,    67.684967,   188.697998,    67.684967
    763,   75.9405746,   188.697998,   58.2712517
    764,   82.8968201,   188.697998,   47.8605003
    765,   88.4346695,   188.697998,   36.6308403
    766,   92.4593887,   188.697998,   24.7744179
    767,    94.902092,   188.697998,   12.4940977
    768,   95.7210007,   188.697998,           0.
    769,    94.902092,   201.277863,  -12.4940977
    770,   92.4593887,   201.277863,  -24.7744179
    771,   88.4346695,   201.277863,  -36.6308403
    772,   82.8968201,   201.277863,  -47.8605003
    773,   75.9405746,   201.277863,  -58.2712517
    774,    67.684967,   201.277863,   -67.684967
    775,   58.2712517,   201.277863,  -75.9405746
    776,   47.8605003,   201.277863,  -82.8968201
    777,   36.6308403,   201.277863,  -88.4346695
    778,   24.7744179,   201.277863,  -92.4593887
    779,   12.4940977,   201.277863,   -94.902092
    780,           0.,   201.277863,  -95.7210007
    781,  -12.4940977,   201.277863,   -94.902092
    782,  -24.7744179,   201.277863,  -92.4593887
    783,  -36.6308403,   201.277863,  -88.4346695
    784,  -47.8605003,   201.277863,  -82.8968201
    785,  -58.2712517,   201.277863,  -75.9405746
    786,   -67.684967,   201.277863,   -67.684967
    787,  -75.9405746,   201.277863,  -58.2712517
    788,  -82.8968201,   201.277863,  -47.8605003
    789,  -88.4346695,   201.277863,  -36.6308403
    790,  -92.4593887,   201.277863,  -24.7744179
    791,   -94.902092,   201.277863,  -12.4940977
    792,  -95.7210007,   201.277863,           0.
    793,   -94.902092,   201.277863,   12.4940977
    794,  -92.4593887,   201.277863,   24.7744179
    795,  -88.4346695,   201.277863,   36.6308403
    796,  -82.8968201,   201.277863,   47.8605003
    797,  -75.9405746,   201.277863,   58.2712517
    798,   -67.684967,   201.277863,    67.684967
    799,  -58.2712517,   201.277863,   75.9405746
    800,  -47.8605003,   201.277863,   82.8968201
    801,  -36.6308403,   201.277863,   88.4346695
    802,  -24.7744179,   201.277863,   92.4593887
    803,  -12.4940977,   201.277863,    94.902092
    804,           0.,   201.277863,   95.7210007
    805,   12.4940977,   201.277863,    94.902092
    806,   24.7744179,   201.277863,   92.4593887
    807,   36.6308403,   201.277863,   88.4346695
    808,   47.8605003,   201.277863,   82.8968201
    809,   58.2712517,   201.277863,   75.9405746
    810,    67.684967,   201.277863,    67.684967
    811,   75.9405746,   201.277863,   58.2712517
    812,   82.8968201,   201.277863,   47.8605003
    813,   88.4346695,   201.277863,   36.6308403
    814,   92.4593887,   201.277863,   24.7744179
    815,    94.902092,   201.277863,   12.4940977
    816,   95.7210007,   201.277863,           0.
    817,    94.902092,   213.857727,  -12.4940977
    818,   92.4593887,   213.857727,  -24.7744179
    819,   88.4346695,   213.857727,  -36.6308403
    820,   82.8968201,   213.857727,  -47.8605003
    821,   75.9405746,   213.857727,  -58.2712517
    822,    67.684967,   213.857727,   -67.684967
    823,   58.2712517,   213.857727,  -75.9405746
    824,   47.8605003,   213.857727,  -82.8968201
    825,   36.6308403,   213.857727,  -88.4346695
    826,   24.7744179,   213.857727,  -92.4593887
    827,   12.4940977,   213.857727,   -94.902092
    828,           0.,   213.857727,  -95.7210007
    829,  -12.4940977,   213.857727,   -94.902092
    830,  -24.7744179,   213.857727,  -92.4593887
    831,  -36.6308403,   213.857727,  -88.4346695
    832,  -47.8605003,   213.857727,  -82.8968201
    833,  -58.2712517,   213.857727,  -75.9405746
    834,   -67.684967,   213.857727,   -67.684967
    835,  -75.9405746,   213.857727,  -58.2712517
    836,  -82.8968201,   213.857727,  -47.8605003
    837,  -88.4346695,   213.857727,  -36.6308403
    838,  -92.4593887,   213.857727,  -24.7744179
    839,   -94.902092,   213.857727,  -12.4940977
    840,  -95.7210007,   213.857727,           0.
    841,   -94.902092,   213.857727,   12.4940977
    842,  -92.4593887,   213.857727,   24.7744179
    843,  -88.4346695,   213.857727,   36.6308403
    844,  -82.8968201,   213.857727,   47.8605003
    845,  -75.9405746,   213.857727,   58.2712517
    846,   -67.684967,   213.857727,    67.684967
    847,  -58.2712517,   213.857727,   75.9405746
    848,  -47.8605003,   213.857727,   82.8968201
    849,  -36.6308403,   213.857727,   88.4346695
    850,  -24.7744179,   213.857727,   92.4593887
    851,  -12.4940977,   213.857727,    94.902092
    852,           0.,   213.857727,   95.7210007
    853,   12.4940977,   213.857727,    94.902092
    854,   24.7744179,   213.857727,   92.4593887
    855,   36.6308403,   213.857727,   88.4346695
    856,   47.8605003,   213.857727,   82.8968201
    857,   58.2712517,   213.857727,   75.9405746
    858,    67.684967,   213.857727,    67.684967
    859,   75.9405746,   213.857727,   58.2712517
    860,   82.8968201,   213.857727,   47.8605003
    861,   88.4346695,   213.857727,   36.6308403
    862,   92.4593887,   213.857727,   24.7744179
    863,    94.902092,   213.857727,   12.4940977
    864,   95.7210007,   213.857727,           0.
    865,    94.902092,   226.437607,  -12.4940977
    866,   92.4593887,   226.437607,  -24.7744179
    867,   88.4346695,   226.437607,  -36.6308403
    868,   82.8968201,   226.437607,  -47.8605003
    869,   75.9405746,   226.437607,  -58.2712517
    870,    67.684967,   226.437607,   -67.684967
    871,   58.2712517,   226.437607,  -75.9405746
    872,   47.8605003,   226.437607,  -82.8968201
    873,   36.6308403,   226.437607,  -88.4346695
    874,   24.7744179,   226.437607,  -92.4593887
    875,   12.4940977,   226.437607,   -94.902092
    876,           0.,   226.437607,  -95.7210007
    877,  -12.4940977,   226.437607,   -94.902092
    878,  -24.7744179,   226.437607,  -92.4593887
    879,  -36.6308403,   226.437607,  -88.4346695
    880,  -47.8605003,   226.437607,  -82.8968201
    881,  -58.2712517,   226.437607,  -75.9405746
    882,   -67.684967,   226.437607,   -67.684967
    883,  -75.9405746,   226.437607,  -58.2712517
    884,  -82.8968201,   226.437607,  -47.8605003
    885,  -88.4346695,   226.437607,  -36.6308403
    886,  -92.4593887,   226.437607,  -24.7744179
    887,   -94.902092,   226.437607,  -12.4940977
    888,  -95.7210007,   226.437607,           0.
    889,   -94.902092,   226.437607,   12.4940977
    890,  -92.4593887,   226.437607,   24.7744179
    891,  -88.4346695,   226.437607,   36.6308403
    892,  -82.8968201,   226.437607,   47.8605003
    893,  -75.9405746,   226.437607,   58.2712517
    894,   -67.684967,   226.437607,    67.684967
    895,  -58.2712517,   226.437607,   75.9405746
    896,  -47.8605003,   226.437607,   82.8968201
    897,  -36.6308403,   226.437607,   88.4346695
    898,  -24.7744179,   226.437607,   92.4593887
    899,  -12.4940977,   226.437607,    94.902092
    900,           0.,   226.437607,   95.7210007
    901,   12.4940977,   226.437607,    94.902092
    902,   24.7744179,   226.437607,   92.4593887
    903,   36.6308403,   226.437607,   88.4346695
    904,   47.8605003,   226.437607,   82.8968201
    905,   58.2712517,   226.437607,   75.9405746
    906,    67.684967,   226.437607,    67.684967
    907,   75.9405746,   226.437607,   58.2712517
    908,   82.8968201,   226.437607,   47.8605003
    909,   88.4346695,   226.437607,   36.6308403
    910,   92.4593887,   226.437607,   24.7744179
    911,    94.902092,   226.437607,   12.4940977
    912,   95.7210007,   226.437607,           0.
    913,    94.902092,   239.017471,  -12.4940977
    914,   92.4593887,   239.017471,  -24.7744179
    915,   88.4346695,   239.017471,  -36.6308403
    916,   82.8968201,   239.017471,  -47.8605003
    917,   75.9405746,   239.017471,  -58.2712517
    918,    67.684967,   239.017471,   -67.684967
    919,   58.2712517,   239.017471,  -75.9405746
    920,   47.8605003,   239.017471,  -82.8968201
    921,   36.6308403,   239.017471,  -88.4346695
    922,   24.7744179,   239.017471,  -92.4593887
    923,   12.4940977,   239.017471,   -94.902092
    924,           0.,   239.017471,  -95.7210007
    925,  -12.4940977,   239.017471,   -94.902092
    926,  -24.7744179,   239.017471,  -92.4593887
    927,  -36.6308403,   239.017471,  -88.4346695
    928,  -47.8605003,   239.017471,  -82.8968201
    929,  -58.2712517,   239.017471,  -75.9405746
    930,   -67.684967,   239.017471,   -67.684967
    931,  -75.9405746,   239.017471,  -58.2712517
    932,  -82.8968201,   239.017471,  -47.8605003
    933,  -88.4346695,   239.017471,  -36.6308403
    934,  -92.4593887,   239.017471,  -24.7744179
    935,   -94.902092,   239.017471,  -12.4940977
    936,  -95.7210007,   239.017471,           0.
    937,   -94.902092,   239.017471,   12.4940977
    938,  -92.4593887,   239.017471,   24.7744179
    939,  -88.4346695,   239.017471,   36.6308403
    940,  -82.8968201,   239.017471,   47.8605003
    941,  -75.9405746,   239.017471,   58.2712517
    942,   -67.684967,   239.017471,    67.684967
    943,  -58.2712517,   239.017471,   75.9405746
    944,  -47.8605003,   239.017471,   82.8968201
    945,  -36.6308403,   239.017471,   88.4346695
    946,  -24.7744179,   239.017471,   92.4593887
    947,  -12.4940977,   239.017471,    94.902092
    948,           0.,   239.017471,   95.7210007
    949,   12.4940977,   239.017471,    94.902092
    950,   24.7744179,   239.017471,   92.4593887
    951,   36.6308403,   239.017471,   88.4346695
    952,   47.8605003,   239.017471,   82.8968201
    953,   58.2712517,   239.017471,   75.9405746
    954,    67.684967,   239.017471,    67.684967
    955,   75.9405746,   239.017471,   58.2712517
    956,   82.8968201,   239.017471,   47.8605003
    957,   88.4346695,   239.017471,   36.6308403
    958,   92.4593887,   239.017471,   24.7744179
    959,    94.902092,   239.017471,   12.4940977
    960,   95.7210007,   239.017471,           0.
    961,    94.902092,   251.597336,  -12.4940977
    962,   92.4593887,   251.597336,  -24.7744179
    963,   88.4346695,   251.597336,  -36.6308403
    964,   82.8968201,   251.597336,  -47.8605003
    965,   75.9405746,   251.597336,  -58.2712517
    966,    67.684967,   251.597336,   -67.684967
    967,   58.2712517,   251.597336,  -75.9405746
    968,   47.8605003,   251.597336,  -82.8968201
    969,   36.6308403,   251.597336,  -88.4346695
    970,   24.7744179,   251.597336,  -92.4593887
    971,   12.4940977,   251.597336,   -94.902092
    972,           0.,   251.597336,  -95.7210007
    973,  -12.4940977,   251.597336,   -94.902092
    974,  -24.7744179,   251.597336,  -92.4593887
    975,  -36.6308403,   251.597336,  -88.4346695
    976,  -47.8605003,   251.597336,  -82.8968201
    977,  -58.2712517,   251.597336,  -75.9405746
    978,   -67.684967,   251.597336,   -67.684967
    979,  -75.9405746,   251.597336,  -58.2712517
    980,  -82.8968201,   251.597336,  -47.8605003
    981,  -88.4346695,   251.597336,  -36.6308403
    982,  -92.4593887,   251.597336,  -24.7744179
    983,   -94.902092,   251.597336,  -12.4940977
    984,  -95.7210007,   251.597336,           0.
    985,   -94.902092,   251.597336,   12.4940977
    986,  -92.4593887,   251.597336,   24.7744179
    987,  -88.4346695,   251.597336,   36.6308403
    988,  -82.8968201,   251.597336,   47.8605003
    989,  -75.9405746,   251.597336,   58.2712517
    990,   -67.684967,   251.597336,    67.684967
    991,  -58.2712517,   251.597336,   75.9405746
    992,  -47.8605003,   251.597336,   82.8968201
    993,  -36.6308403,   251.597336,   88.4346695
    994,  -24.7744179,   251.597336,   92.4593887
    995,  -12.4940977,   251.597336,    94.902092
    996,           0.,   251.597336,   95.7210007
    997,   12.4940977,   251.597336,    94.902092
    998,   24.7744179,   251.597336,   92.4593887
    999,   36.6308403,   251.597336,   88.4346695
   1000,   47.8605003,   251.597336,   82.8968201
   1001,   58.2712517,   251.597336,   75.9405746
   1002,    67.684967,   251.597336,    67.684967
   1003,   75.9405746,   251.597336,   58.2712517
   1004,   82.8968201,   251.597336,   47.8605003
   1005,   88.4346695,   251.597336,   36.6308403
   1006,   92.4593887,   251.597336,   24.7744179
   1007,    94.902092,   251.597336,   12.4940977
   1008,   95.7210007,   251.597336,           0.
   1009,    94.902092,   264.177185,  -12.4940977
   1010,   92.4593887,   264.177185,  -24.7744179
   1011,   88.4346695,   264.177185,  -36.6308403
   1012,   82.8968201,   264.177185,  -47.8605003
   1013,   75.9405746,   264.177185,  -58.2712517
   1014,    67.684967,   264.177185,   -67.684967
   1015,   58.2712517,   264.177185,  -75.9405746
   1016,   47.8605003,   264.177185,  -82.8968201
   1017,   36.6308403,   264.177185,  -88.4346695
   1018,   24.7744179,   264.177185,  -92.4593887
   1019,   12.4940977,   264.177185,   -94.902092
   1020,           0.,   264.177185,  -95.7210007
   1021,  -12.4940977,   264.177185,   -94.902092
   1022,  -24.7744179,   264.177185,  -92.4593887
   1023,  -36.6308403,   264.177185,  -88.4346695
   1024,  -47.8605003,   264.177185,  -82.8968201
   1025,  -58.2712517,   264.177185,  -75.9405746
   1026,   -67.684967,   264.177185,   -67.684967
   1027,  -75.9405746,   264.177185,  -58.2712517
   1028,  -82.8968201,   264.177185,  -47.8605003
   1029,  -88.4346695,   264.177185,  -36.6308403
   1030,  -92.4593887,   264.177185,  -24.7744179
   1031,   -94.902092,   264.177185,  -12.4940977
   1032,  -95.7210007,   264.177185,           0.
   1033,   -94.902092,   264.177185,   12.4940977
   1034,  -92.4593887,   264.177185,   24.7744179
   1035,  -88.4346695,   264.177185,   36.6308403
   1036,  -82.8968201,   264.177185,   47.8605003
   1037,  -75.9405746,   264.177185,   58.2712517
   1038,   -67.684967,   264.177185,    67.684967
   1039,  -58.2712517,   264.177185,   75.9405746
   1040,  -47.8605003,   264.177185,   82.8968201
   1041,  -36.6308403,   264.177185,   88.4346695
   1042,  -24.7744179,   264.177185,   92.4593887
   1043,  -12.4940977,   264.177185,    94.902092
   1044,           0.,   264.177185,   95.7210007
   1045,   12.4940977,   264.177185,    94.902092
   1046,   24.7744179,   264.177185,   92.4593887
   1047,   36.6308403,   264.177185,   88.4346695
   1048,   47.8605003,   264.177185,   82.8968201
   1049,   58.2712517,   264.177185,   75.9405746
   1050,    67.684967,   264.177185,    67.684967
   1051,   75.9405746,   264.177185,   58.2712517
   1052,   82.8968201,   264.177185,   47.8605003
   1053,   88.4346695,   264.177185,   36.6308403
   1054,   92.4593887,   264.177185,   24.7744179
   1055,    94.902092,   264.177185,   12.4940977
   1056,   95.7210007,   264.177185,           0.
   1057,    94.902092,    276.75708,  -12.4940977
   1058,   92.4593887,    276.75708,  -24.7744179
   1059,   88.4346695,    276.75708,  -36.6308403
   1060,   82.8968201,    276.75708,  -47.8605003
   1061,   75.9405746,    276.75708,  -58.2712517
   1062,    67.684967,    276.75708,   -67.684967
   1063,   58.2712517,    276.75708,  -75.9405746
   1064,   47.8605003,    276.75708,  -82.8968201
   1065,   36.6308403,    276.75708,  -88.4346695
   1066,   24.7744179,    276.75708,  -92.4593887
   1067,   12.4940977,    276.75708,   -94.902092
   1068,           0.,    276.75708,  -95.7210007
   1069,  -12.4940977,    276.75708,   -94.902092
   1070,  -24.7744179,    276.75708,  -92.4593887
   1071,  -36.6308403,    276.75708,  -88.4346695
   1072,  -47.8605003,    276.75708,  -82.8968201
   1073,  -58.2712517,    276.75708,  -75.9405746
   1074,   -67.684967,    276.75708,   -67.684967
   1075,  -75.9405746,    276.75708,  -58.2712517
   1076,  -82.8968201,    276.75708,  -47.8605003
   1077,  -88.4346695,    276.75708,  -36.6308403
   1078,  -92.4593887,    276.75708,  -24.7744179
   1079,   -94.902092,    276.75708,  -12.4940977
   1080,  -95.7210007,    276.75708,           0.
   1081,   -94.902092,    276.75708,   12.4940977
   1082,  -92.4593887,    276.75708,   24.7744179
   1083,  -88.4346695,    276.75708,   36.6308403
   1084,  -82.8968201,    276.75708,   47.8605003
   1085,  -75.9405746,    276.75708,   58.2712517
   1086,   -67.684967,    276.75708,    67.684967
   1087,  -58.2712517,    276.75708,   75.9405746
   1088,  -47.8605003,    276.75708,   82.8968201
   1089,  -36.6308403,    276.75708,   88.4346695
   1090,  -24.7744179,    276.75708,   92.4593887
   1091,  -12.4940977,    276.75708,    94.902092
   1092,           0.,    276.75708,   95.7210007
   1093,   12.4940977,    276.75708,    94.902092
   1094,   24.7744179,    276.75708,   92.4593887
   1095,   36.6308403,    276.75708,   88.4346695
   1096,   47.8605003,    276.75708,   82.8968201
   1097,   58.2712517,    276.75708,   75.9405746
   1098,    67.684967,    276.75708,    67.684967
   1099,   75.9405746,    276.75708,   58.2712517
   1100,   82.8968201,    276.75708,   47.8605003
   1101,   88.4346695,    276.75708,   36.6308403
   1102,   92.4593887,    276.75708,   24.7744179
   1103,    94.902092,    276.75708,   12.4940977
   1104,   95.7210007,    276.75708,           0.
   1105,    94.902092,   289.336945,  -12.4940977
   1106,   92.4593887,   289.336945,  -24.7744179
   1107,   88.4346695,   289.336945,  -36.6308403
   1108,   82.8968201,   289.336945,  -47.8605003
   1109,   75.9405746,   289.336945,  -58.2712517
   1110,    67.684967,   289.336945,   -67.684967
   1111,   58.2712517,   289.336945,  -75.9405746
   1112,   47.8605003,   289.336945,  -82.8968201
   1113,   36.6308403,   289.336945,  -88.4346695
   1114,   24.7744179,   289.336945,  -92.4593887
   1115,   12.4940977,   289.336945,   -94.902092
   1116,           0.,   289.336945,  -95.7210007
   1117,  -12.4940977,   289.336945,   -94.902092
   1118,  -24.7744179,   289.336945,  -92.4593887
   1119,  -36.6308403,   289.336945,  -88.4346695
   1120,  -47.8605003,   289.336945,  -82.8968201
   1121,  -58.2712517,   289.336945,  -75.9405746
   1122,   -67.684967,   289.336945,   -67.684967
   1123,  -75.9405746,   289.336945,  -58.2712517
   1124,  -82.8968201,   289.336945,  -47.8605003
   1125,  -88.4346695,   289.336945,  -36.6308403
   1126,  -92.4593887,   289.336945,  -24.7744179
   1127,   -94.902092,   289.336945,  -12.4940977
   1128,  -95.7210007,   289.336945,           0.
   1129,   -94.902092,   289.336945,   12.4940977
   1130,  -92.4593887,   289.336945,   24.7744179
   1131,  -88.4346695,   289.336945,   36.6308403
   1132,  -82.8968201,   289.336945,   47.8605003
   1133,  -75.9405746,   289.336945,   58.2712517
   1134,   -67.684967,   289.336945,    67.684967
   1135,  -58.2712517,   289.336945,   75.9405746
   1136,  -47.8605003,   289.336945,   82.8968201
   1137,  -36.6308403,   289.336945,   88.4346695
   1138,  -24.7744179,   289.336945,   92.4593887
   1139,  -12.4940977,   289.336945,    94.902092
   1140,           0.,   289.336945,   95.7210007
   1141,   12.4940977,   289.336945,    94.902092
   1142,   24.7744179,   289.336945,   92.4593887
   1143,   36.6308403,   289.336945,   88.4346695
   1144,   47.8605003,   289.336945,   82.8968201
   1145,   58.2712517,   289.336945,   75.9405746
   1146,    67.684967,   289.336945,    67.684967
   1147,   75.9405746,   289.336945,   58.2712517
   1148,   82.8968201,   289.336945,   47.8605003
   1149,   88.4346695,   289.336945,   36.6308403
   1150,   92.4593887,   289.336945,   24.7744179
   1151,    94.902092,   289.336945,   12.4940977
   1152,   95.7210007,   289.336945,           0.
   1153,    94.902092,   301.916809,  -12.4940977
   1154,   92.4593887,   301.916809,  -24.7744179
   1155,   88.4346695,   301.916809,  -36.6308403
   1156,   82.8968201,   301.916809,  -47.8605003
   1157,   75.9405746,   301.916809,  -58.2712517
   1158,    67.684967,   301.916809,   -67.684967
   1159,   58.2712517,   301.916809,  -75.9405746
   1160,   47.8605003,   301.916809,  -82.8968201
   1161,   36.6308403,   301.916809,  -88.4346695
   1162,   24.7744179,   301.916809,  -92.4593887
   1163,   12.4940977,   301.916809,   -94.902092
   1164,           0.,   301.916809,  -95.7210007
   1165,  -12.4940977,   301.916809,   -94.902092
   1166,  -24.7744179,   301.916809,  -92.4593887
   1167,  -36.6308403,   301.916809,  -88.4346695
   1168,  -47.8605003,   301.916809,  -82.8968201
   1169,  -58.2712517,   301.916809,  -75.9405746
   1170,   -67.684967,   301.916809,   -67.684967
   1171,  -75.9405746,   301.916809,  -58.2712517
   1172,  -82.8968201,   301.916809,  -47.8605003
   1173,  -88.4346695,   301.916809,  -36.6308403
   1174,  -92.4593887,   301.916809,  -24.7744179
   1175,   -94.902092,   301.916809,  -12.4940977
   1176,  -95.7210007,   301.916809,           0.
   1177,   -94.902092,   301.916809,   12.4940977
   1178,  -92.4593887,   301.916809,   24.7744179
   1179,  -88.4346695,   301.916809,   36.6308403
   1180,  -82.8968201,   301.916809,   47.8605003
   1181,  -75.9405746,   301.916809,   58.2712517
   1182,   -67.684967,   301.916809,    67.684967
   1183,  -58.2712517,   301.916809,   75.9405746
   1184,  -47.8605003,   301.916809,   82.8968201
   1185,  -36.6308403,   301.916809,   88.4346695
   1186,  -24.7744179,   301.916809,   92.4593887
   1187,  -12.4940977,   301.916809,    94.902092
   1188,           0.,   301.916809,   95.7210007
   1189,   12.4940977,   301.916809,    94.902092
   1190,   24.7744179,   301.916809,   92.4593887
   1191,   36.6308403,   301.916809,   88.4346695
   1192,   47.8605003,   301.916809,   82.8968201
   1193,   58.2712517,   301.916809,   75.9405746
   1194,    67.684967,   301.916809,    67.684967
   1195,   75.9405746,   301.916809,   58.2712517
   1196,   82.8968201,   301.916809,   47.8605003
   1197,   88.4346695,   301.916809,   36.6308403
   1198,   92.4593887,   301.916809,   24.7744179
   1199,    94.902092,   301.916809,   12.4940977
   1200,   95.7210007,   301.916809,           0.
   1201,    94.902092,   314.496674,  -12.4940977
   1202,   92.4593887,   314.496674,  -24.7744179
   1203,   88.4346695,   314.496674,  -36.6308403
   1204,   82.8968201,   314.496674,  -47.8605003
   1205,   75.9405746,   314.496674,  -58.2712517
   1206,    67.684967,   314.496674,   -67.684967
   1207,   58.2712517,   314.496674,  -75.9405746
   1208,   47.8605003,   314.496674,  -82.8968201
   1209,   36.6308403,   314.496674,  -88.4346695
   1210,   24.7744179,   314.496674,  -92.4593887
   1211,   12.4940977,   314.496674,   -94.902092
   1212,           0.,   314.496674,  -95.7210007
   1213,  -12.4940977,   314.496674,   -94.902092
   1214,  -24.7744179,   314.496674,  -92.4593887
   1215,  -36.6308403,   314.496674,  -88.4346695
   1216,  -47.8605003,   314.496674,  -82.8968201
   1217,  -58.2712517,   314.496674,  -75.9405746
   1218,   -67.684967,   314.496674,   -67.684967
   1219,  -75.9405746,   314.496674,  -58.2712517
   1220,  -82.8968201,   314.496674,  -47.8605003
   1221,  -88.4346695,   314.496674,  -36.6308403
   1222,  -92.4593887,   314.496674,  -24.7744179
   1223,   -94.902092,   314.496674,  -12.4940977
   1224,  -95.7210007,   314.496674,           0.
   1225,   -94.902092,   314.496674,   12.4940977
   1226,  -92.4593887,   314.496674,   24.7744179
   1227,  -88.4346695,   314.496674,   36.6308403
   1228,  -82.8968201,   314.496674,   47.8605003
   1229,  -75.9405746,   314.496674,   58.2712517
   1230,   -67.684967,   314.496674,    67.684967
   1231,  -58.2712517,   314.496674,   75.9405746
   1232,  -47.8605003,   314.496674,   82.8968201
   1233,  -36.6308403,   314.496674,   88.4346695
   1234,  -24.7744179,   314.496674,   92.4593887
   1235,  -12.4940977,   314.496674,    94.902092
   1236,           0.,   314.496674,   95.7210007
   1237,   12.4940977,   314.496674,    94.902092
   1238,   24.7744179,   314.496674,   92.4593887
   1239,   36.6308403,   314.496674,   88.4346695
   1240,   47.8605003,   314.496674,   82.8968201
   1241,   58.2712517,   314.496674,   75.9405746
   1242,    67.684967,   314.496674,    67.684967
   1243,   75.9405746,   314.496674,   58.2712517
   1244,   82.8968201,   314.496674,   47.8605003
   1245,   88.4346695,   314.496674,   36.6308403
   1246,   92.4593887,   314.496674,   24.7744179
   1247,    94.902092,   314.496674,   12.4940977
   1248,   95.7210007,   314.496674,           0.
   1249,    94.902092,   327.076538,  -12.4940977
   1250,   92.4593887,   327.076538,  -24.7744179
   1251,   88.4346695,   327.076538,  -36.6308403
   1252,   82.8968201,   327.076538,  -47.8605003
   1253,   75.9405746,   327.076538,  -58.2712517
   1254,    67.684967,   327.076538,   -67.684967
   1255,   58.2712517,   327.076538,  -75.9405746
   1256,   47.8605003,   327.076538,  -82.8968201
   1257,   36.6308403,   327.076538,  -88.4346695
   1258,   24.7744179,   327.076538,  -92.4593887
   1259,   12.4940977,   327.076538,   -94.902092
   1260,           0.,   327.076538,  -95.7210007
   1261,  -12.4940977,   327.076538,   -94.902092
   1262,  -24.7744179,   327.076538,  -92.4593887
   1263,  -36.6308403,   327.076538,  -88.4346695
   1264,  -47.8605003,   327.076538,  -82.8968201
   1265,  -58.2712517,   327.076538,  -75.9405746
   1266,   -67.684967,   327.076538,   -67.684967
   1267,  -75.9405746,   327.076538,  -58.2712517
   1268,  -82.8968201,   327.076538,  -47.8605003
   1269,  -88.4346695,   327.076538,  -36.6308403
   1270,  -92.4593887,   327.076538,  -24.7744179
   1271,   -94.902092,   327.076538,  -12.4940977
   1272,  -95.7210007,   327.076538,           0.
   1273,   -94.902092,   327.076538,   12.4940977
   1274,  -92.4593887,   327.076538,   24.7744179
   1275,  -88.4346695,   327.076538,   36.6308403
   1276,  -82.8968201,   327.076538,   47.8605003
   1277,  -75.9405746,   327.076538,   58.2712517
   1278,   -67.684967,   327.076538,    67.684967
   1279,  -58.2712517,   327.076538,   75.9405746
   1280,  -47.8605003,   327.076538,   82.8968201
   1281,  -36.6308403,   327.076538,   88.4346695
   1282,  -24.7744179,   327.076538,   92.4593887
   1283,  -12.4940977,   327.076538,    94.902092
   1284,           0.,   327.076538,   95.7210007
   1285,   12.4940977,   327.076538,    94.902092
   1286,   24.7744179,   327.076538,   92.4593887
   1287,   36.6308403,   327.076538,   88.4346695
   1288,   47.8605003,   327.076538,   82.8968201
   1289,   58.2712517,   327.076538,   75.9405746
   1290,    67.684967,   327.076538,    67.684967
   1291,   75.9405746,   327.076538,   58.2712517
   1292,   82.8968201,   327.076538,   47.8605003
   1293,   88.4346695,   327.076538,   36.6308403
   1294,   92.4593887,   327.076538,   24.7744179
   1295,    94.902092,   327.076538,   12.4940977
   1296,   95.7210007,   327.076538,           0.
   1297,    94.902092,   339.656403,  -12.4940977
   1298,   92.4593887,   339.656403,  -24.7744179
   1299,   88.4346695,   339.656403,  -36.6308403
   1300,   82.8968201,   339.656403,  -47.8605003
   1301,   75.9405746,   339.656403,  -58.2712517
   1302,    67.684967,   339.656403,   -67.684967
   1303,   58.2712517,   339.656403,  -75.9405746
   1304,   47.8605003,   339.656403,  -82.8968201
   1305,   36.6308403,   339.656403,  -88.4346695
   1306,   24.7744179,   339.656403,  -92.4593887
   1307,   12.4940977,   339.656403,   -94.902092
   1308,           0.,   339.656403,  -95.7210007
   1309,  -12.4940977,   339.656403,   -94.902092
   1310,  -24.7744179,   339.656403,  -92.4593887
   1311,  -36.6308403,   339.656403,  -88.4346695
   1312,  -47.8605003,   339.656403,  -82.8968201
   1313,  -58.2712517,   339.656403,  -75.9405746
   1314,   -67.684967,   339.656403,   -67.684967
   1315,  -75.9405746,   339.656403,  -58.2712517
   1316,  -82.8968201,   339.656403,  -47.8605003
   1317,  -88.4346695,   339.656403,  -36.6308403
   1318,  -92.4593887,   339.656403,  -24.7744179
   1319,   -94.902092,   339.656403,  -12.4940977
   1320,  -95.7210007,   339.656403,           0.
   1321,   -94.902092,   339.656403,   12.4940977
   1322,  -92.4593887,   339.656403,   24.7744179
   1323,  -88.4346695,   339.656403,   36.6308403
   1324,  -82.8968201,   339.656403,   47.8605003
   1325,  -75.9405746,   339.656403,   58.2712517
   1326,   -67.684967,   339.656403,    67.684967
   1327,  -58.2712517,   339.656403,   75.9405746
   1328,  -47.8605003,   339.656403,   82.8968201
   1329,  -36.6308403,   339.656403,   88.4346695
   1330,  -24.7744179,   339.656403,   92.4593887
   1331,  -12.4940977,   339.656403,    94.902092
   1332,           0.,   339.656403,   95.7210007
   1333,   12.4940977,   339.656403,    94.902092
   1334,   24.7744179,   339.656403,   92.4593887
   1335,   36.6308403,   339.656403,   88.4346695
   1336,   47.8605003,   339.656403,   82.8968201
   1337,   58.2712517,   339.656403,   75.9405746
   1338,    67.684967,   339.656403,    67.684967
   1339,   75.9405746,   339.656403,   58.2712517
   1340,   82.8968201,   339.656403,   47.8605003
   1341,   88.4346695,   339.656403,   36.6308403
   1342,   92.4593887,   339.656403,   24.7744179
   1343,    94.902092,   339.656403,   12.4940977
   1344,   95.7210007,   339.656403,           0.
   1345,    94.902092,   352.236267,  -12.4940977
   1346,   92.4593887,   352.236267,  -24.7744179
   1347,   88.4346695,   352.236267,  -36.6308403
   1348,   82.8968201,   352.236267,  -47.8605003
   1349,   75.9405746,   352.236267,  -58.2712517
   1350,    67.684967,   352.236267,   -67.684967
   1351,   58.2712517,   352.236267,  -75.9405746
   1352,   47.8605003,   352.236267,  -82.8968201
   1353,   36.6308403,   352.236267,  -88.4346695
   1354,   24.7744179,   352.236267,  -92.4593887
   1355,   12.4940977,   352.236267,   -94.902092
   1356,           0.,   352.236267,  -95.7210007
   1357,  -12.4940977,   352.236267,   -94.902092
   1358,  -24.7744179,   352.236267,  -92.4593887
   1359,  -36.6308403,   352.236267,  -88.4346695
   1360,  -47.8605003,   352.236267,  -82.8968201
   1361,  -58.2712517,   352.236267,  -75.9405746
   1362,   -67.684967,   352.236267,   -67.684967
   1363,  -75.9405746,   352.236267,  -58.2712517
   1364,  -82.8968201,   352.236267,  -47.8605003
   1365,  -88.4346695,   352.236267,  -36.6308403
   1366,  -92.4593887,   352.236267,  -24.7744179
   1367,   -94.902092,   352.236267,  -12.4940977
   1368,  -95.7210007,   352.236267,           0.
   1369,   -94.902092,   352.236267,   12.4940977
   1370,  -92.4593887,   352.236267,   24.7744179
   1371,  -88.4346695,   352.236267,   36.6308403
   1372,  -82.8968201,   352.236267,   47.8605003
   1373,  -75.9405746,   352.236267,   58.2712517
   1374,   -67.684967,   352.236267,    67.684967
   1375,  -58.2712517,   352.236267,   75.9405746
   1376,  -47.8605003,   352.236267,   82.8968201
   1377,  -36.6308403,   352.236267,   88.4346695
   1378,  -24.7744179,   352.236267,   92.4593887
   1379,  -12.4940977,   352.236267,    94.902092
   1380,           0.,   352.236267,   95.7210007
   1381,   12.4940977,   352.236267,    94.902092
   1382,   24.7744179,   352.236267,   92.4593887
   1383,   36.6308403,   352.236267,   88.4346695
   1384,   47.8605003,   352.236267,   82.8968201
   1385,   58.2712517,   352.236267,   75.9405746
   1386,    67.684967,   352.236267,    67.684967
   1387,   75.9405746,   352.236267,   58.2712517
   1388,   82.8968201,   352.236267,   47.8605003
   1389,   88.4346695,   352.236267,   36.6308403
   1390,   92.4593887,   352.236267,   24.7744179
   1391,    94.902092,   352.236267,   12.4940977
   1392,   95.7210007,   352.236267,           0.
   1393,    94.902092,   364.816132,  -12.4940977
   1394,   92.4593887,   364.816132,  -24.7744179
   1395,   88.4346695,   364.816132,  -36.6308403
   1396,   82.8968201,   364.816132,  -47.8605003
   1397,   75.9405746,   364.816132,  -58.2712517
   1398,    67.684967,   364.816132,   -67.684967
   1399,   58.2712517,   364.816132,  -75.9405746
   1400,   47.8605003,   364.816132,  -82.8968201
   1401,   36.6308403,   364.816132,  -88.4346695
   1402,   24.7744179,   364.816132,  -92.4593887
   1403,   12.4940977,   364.816132,   -94.902092
   1404,           0.,   364.816132,  -95.7210007
   1405,  -12.4940977,   364.816132,   -94.902092
   1406,  -24.7744179,   364.816132,  -92.4593887
   1407,  -36.6308403,   364.816132,  -88.4346695
   1408,  -47.8605003,   364.816132,  -82.8968201
   1409,  -58.2712517,   364.816132,  -75.9405746
   1410,   -67.684967,   364.816132,   -67.684967
   1411,  -75.9405746,   364.816132,  -58.2712517
   1412,  -82.8968201,   364.816132,  -47.8605003
   1413,  -88.4346695,   364.816132,  -36.6308403
   1414,  -92.4593887,   364.816132,  -24.7744179
   1415,   -94.902092,   364.816132,  -12.4940977
   1416,  -95.7210007,   364.816132,           0.
   1417,   -94.902092,   364.816132,   12.4940977
   1418,  -92.4593887,   364.816132,   24.7744179
   1419,  -88.4346695,   364.816132,   36.6308403
   1420,  -82.8968201,   364.816132,   47.8605003
   1421,  -75.9405746,   364.816132,   58.2712517
   1422,   -67.684967,   364.816132,    67.684967
   1423,  -58.2712517,   364.816132,   75.9405746
   1424,  -47.8605003,   364.816132,   82.8968201
   1425,  -36.6308403,   364.816132,   88.4346695
   1426,  -24.7744179,   364.816132,   92.4593887
   1427,  -12.4940977,   364.816132,    94.902092
   1428,           0.,   364.816132,   95.7210007
   1429,   12.4940977,   364.816132,    94.902092
   1430,   24.7744179,   364.816132,   92.4593887
   1431,   36.6308403,   364.816132,   88.4346695
   1432,   47.8605003,   364.816132,   82.8968201
   1433,   58.2712517,   364.816132,   75.9405746
   1434,    67.684967,   364.816132,    67.684967
   1435,   75.9405746,   364.816132,   58.2712517
   1436,   82.8968201,   364.816132,   47.8605003
   1437,   88.4346695,   364.816132,   36.6308403
   1438,   92.4593887,   364.816132,   24.7744179
   1439,    94.902092,   364.816132,   12.4940977
   1440,   95.7210007,   364.816132,           0.
   1441,    94.902092,   377.395996,  -12.4940977
   1442,   92.4593887,   377.395996,  -24.7744179
   1443,   88.4346695,   377.395996,  -36.6308403
   1444,   82.8968201,   377.395996,  -47.8605003
   1445,   75.9405746,   377.395996,  -58.2712517
   1446,    67.684967,   377.395996,   -67.684967
   1447,   58.2712517,   377.395996,  -75.9405746
   1448,   47.8605003,   377.395996,  -82.8968201
   1449,   36.6308403,   377.395996,  -88.4346695
   1450,   24.7744179,   377.395996,  -92.4593887
   1451,   12.4940977,   377.395996,   -94.902092
   1452,           0.,   377.395996,  -95.7210007
   1453,  -12.4940977,   377.395996,   -94.902092
   1454,  -24.7744179,   377.395996,  -92.4593887
   1455,  -36.6308403,   377.395996,  -88.4346695
   1456,  -47.8605003,   377.395996,  -82.8968201
   1457,  -58.2712517,   377.395996,  -75.9405746
   1458,   -67.684967,   377.395996,   -67.684967
   1459,  -75.9405746,   377.395996,  -58.2712517
   1460,  -82.8968201,   377.395996,  -47.8605003
   1461,  -88.4346695,   377.395996,  -36.6308403
   1462,  -92.4593887,   377.395996,  -24.7744179
   1463,   -94.902092,   377.395996,  -12.4940977
   1464,  -95.7210007,   377.395996,           0.
   1465,   -94.902092,   377.395996,   12.4940977
   1466,  -92.4593887,   377.395996,   24.7744179
   1467,  -88.4346695,   377.395996,   36.6308403
   1468,  -82.8968201,   377.395996,   47.8605003
   1469,  -75.9405746,   377.395996,   58.2712517
   1470,   -67.684967,   377.395996,    67.684967
   1471,  -58.2712517,   377.395996,   75.9405746
   1472,  -47.8605003,   377.395996,   82.8968201
   1473,  -36.6308403,   377.395996,   88.4346695
   1474,  -24.7744179,   377.395996,   92.4593887
   1475,  -12.4940977,   377.395996,    94.902092
   1476,           0.,   377.395996,   95.7210007
   1477,   12.4940977,   377.395996,    94.902092
   1478,   24.7744179,   377.395996,   92.4593887
   1479,   36.6308403,   377.395996,   88.4346695
   1480,   47.8605003,   377.395996,   82.8968201
   1481,   58.2712517,   377.395996,   75.9405746
   1482,    67.684967,   377.395996,    67.684967
   1483,   75.9405746,   377.395996,   58.2712517
   1484,   82.8968201,   377.395996,   47.8605003
   1485,   88.4346695,   377.395996,   36.6308403
   1486,   92.4593887,   377.395996,   24.7744179
   1487,    94.902092,   377.395996,   12.4940977
   1488,   95.7210007,   377.395996,           0.
*Element, type=S4R
   1,   48,    1,   49,   96
   2,    1,    2,   50,   49
   3,    2,    3,   51,   50
   4,    3,    4,   52,   51
   5,    4,    5,   53,   52
   6,    5,    6,   54,   53
   7,    6,    7,   55,   54
   8,    7,    8,   56,   55
   9,    8,    9,   57,   56
  10,    9,   10,   58,   57
  11,   10,   11,   59,   58
  12,   11,   12,   60,   59
  13,   12,   13,   61,   60
  14,   13,   14,   62,   61
  15,   14,   15,   63,   62
  16,   15,   16,   64,   63
  17,   16,   17,   65,   64
  18,   17,   18,   66,   65
  19,   18,   19,   67,   66
  20,   19,   20,   68,   67
  21,   20,   21,   69,   68
  22,   21,   22,   70,   69
  23,   22,   23,   71,   70
  24,   23,   24,   72,   71
  25,   24,   25,   73,   72
  26,   25,   26,   74,   73
  27,   26,   27,   75,   74
  28,   27,   28,   76,   75
  29,   28,   29,   77,   76
  30,   29,   30,   78,   77
  31,   30,   31,   79,   78
  32,   31,   32,   80,   79
  33,   32,   33,   81,   80
  34,   33,   34,   82,   81
  35,   34,   35,   83,   82
  36,   35,   36,   84,   83
  37,   36,   37,   85,   84
  38,   37,   38,   86,   85
  39,   38,   39,   87,   86
  40,   39,   40,   88,   87
  41,   40,   41,   89,   88
  42,   41,   42,   90,   89
  43,   42,   43,   91,   90
  44,   43,   44,   92,   91
  45,   44,   45,   93,   92
  46,   45,   46,   94,   93
  47,   46,   47,   95,   94
  48,   47,   48,   96,   95
  49,   96,   49,   97,  144
  50,   49,   50,   98,   97
  51,   50,   51,   99,   98
  52,   51,   52,  100,   99
  53,   52,   53,  101,  100
  54,   53,   54,  102,  101
  55,   54,   55,  103,  102
  56,   55,   56,  104,  103
  57,   56,   57,  105,  104
  58,   57,   58,  106,  105
  59,   58,   59,  107,  106
  60,   59,   60,  108,  107
  61,   60,   61,  109,  108
  62,   61,   62,  110,  109
  63,   62,   63,  111,  110
  64,   63,   64,  112,  111
  65,   64,   65,  113,  112
  66,   65,   66,  114,  113
  67,   66,   67,  115,  114
  68,   67,   68,  116,  115
  69,   68,   69,  117,  116
  70,   69,   70,  118,  117
  71,   70,   71,  119,  118
  72,   71,   72,  120,  119
  73,   72,   73,  121,  120
  74,   73,   74,  122,  121
  75,   74,   75,  123,  122
  76,   75,   76,  124,  123
  77,   76,   77,  125,  124
  78,   77,   78,  126,  125
  79,   78,   79,  127,  126
  80,   79,   80,  128,  127
  81,   80,   81,  129,  128
  82,   81,   82,  130,  129
  83,   82,   83,  131,  130
  84,   83,   84,  132,  131
  85,   84,   85,  133,  132
  86,   85,   86,  134,  133
  87,   86,   87,  135,  134
  88,   87,   88,  136,  135
  89,   88,   89,  137,  136
  90,   89,   90,  138,  137
  91,   90,   91,  139,  138
  92,   91,   92,  140,  139
  93,   92,   93,  141,  140
  94,   93,   94,  142,  141
  95,   94,   95,  143,  142
  96,   95,   96,  144,  143
  97,  144,   97,  145,  192
  98,   97,   98,  146,  145
  99,   98,   99,  147,  146
 100,   99,  100,  148,  147
 101,  100,  101,  149,  148
 102,  101,  102,  150,  149
 103,  102,  103,  151,  150
 104,  103,  104,  152,  151
 105,  104,  105,  153,  152
 106,  105,  106,  154,  153
 107,  106,  107,  155,  154
 108,  107,  108,  156,  155
 109,  108,  109,  157,  156
 110,  109,  110,  158,  157
 111,  110,  111,  159,  158
 112,  111,  112,  160,  159
 113,  112,  113,  161,  160
 114,  113,  114,  162,  161
 115,  114,  115,  163,  162
 116,  115,  116,  164,  163
 117,  116,  117,  165,  164
 118,  117,  118,  166,  165
 119,  118,  119,  167,  166
 120,  119,  120,  168,  167
 121,  120,  121,  169,  168
 122,  121,  122,  170,  169
 123,  122,  123,  171,  170
 124,  123,  124,  172,  171
 125,  124,  125,  173,  172
 126,  125,  126,  174,  173
 127,  126,  127,  175,  174
 128,  127,  128,  176,  175
 129,  128,  129,  177,  176
 130,  129,  130,  178,  177
 131,  130,  131,  179,  178
 132,  131,  132,  180,  179
 133,  132,  133,  181,  180
 134,  133,  134,  182,  181
 135,  134,  135,  183,  182
 136,  135,  136,  184,  183
 137,  136,  137,  185,  184
 138,  137,  138,  186,  185
 139,  138,  139,  187,  186
 140,  139,  140,  188,  187
 141,  140,  141,  189,  188
 142,  141,  142,  190,  189
 143,  142,  143,  191,  190
 144,  143,  144,  192,  191
 145,  192,  145,  193,  240
 146,  145,  146,  194,  193
 147,  146,  147,  195,  194
 148,  147,  148,  196,  195
 149,  148,  149,  197,  196
 150,  149,  150,  198,  197
 151,  150,  151,  199,  198
 152,  151,  152,  200,  199
 153,  152,  153,  201,  200
 154,  153,  154,  202,  201
 155,  154,  155,  203,  202
 156,  155,  156,  204,  203
 157,  156,  157,  205,  204
 158,  157,  158,  206,  205
 159,  158,  159,  207,  206
 160,  159,  160,  208,  207
 161,  160,  161,  209,  208
 162,  161,  162,  210,  209
 163,  162,  163,  211,  210
 164,  163,  164,  212,  211
 165,  164,  165,  213,  212
 166,  165,  166,  214,  213
 167,  166,  167,  215,  214
 168,  167,  168,  216,  215
 169,  168,  169,  217,  216
 170,  169,  170,  218,  217
 171,  170,  171,  219,  218
 172,  171,  172,  220,  219
 173,  172,  173,  221,  220
 174,  173,  174,  222,  221
 175,  174,  175,  223,  222
 176,  175,  176,  224,  223
 177,  176,  177,  225,  224
 178,  177,  178,  226,  225
 179,  178,  179,  227,  226
 180,  179,  180,  228,  227
 181,  180,  181,  229,  228
 182,  181,  182,  230,  229
 183,  182,  183,  231,  230
 184,  183,  184,  232,  231
 185,  184,  185,  233,  232
 186,  185,  186,  234,  233
 187,  186,  187,  235,  234
 188,  187,  188,  236,  235
 189,  188,  189,  237,  236
 190,  189,  190,  238,  237
 191,  190,  191,  239,  238
 192,  191,  192,  240,  239
 193,  240,  193,  241,  288
 194,  193,  194,  242,  241
 195,  194,  195,  243,  242
 196,  195,  196,  244,  243
 197,  196,  197,  245,  244
 198,  197,  198,  246,  245
 199,  198,  199,  247,  246
 200,  199,  200,  248,  247
 201,  200,  201,  249,  248
 202,  201,  202,  250,  249
 203,  202,  203,  251,  250
 204,  203,  204,  252,  251
 205,  204,  205,  253,  252
 206,  205,  206,  254,  253
 207,  206,  207,  255,  254
 208,  207,  208,  256,  255
 209,  208,  209,  257,  256
 210,  209,  210,  258,  257
 211,  210,  211,  259,  258
 212,  211,  212,  260,  259
 213,  212,  213,  261,  260
 214,  213,  214,  262,  261
 215,  214,  215,  263,  262
 216,  215,  216,  264,  263
 217,  216,  217,  265,  264
 218,  217,  218,  266,  265
 219,  218,  219,  267,  266
 220,  219,  220,  268,  267
 221,  220,  221,  269,  268
 222,  221,  222,  270,  269
 223,  222,  223,  271,  270
 224,  223,  224,  272,  271
 225,  224,  225,  273,  272
 226,  225,  226,  274,  273
 227,  226,  227,  275,  274
 228,  227,  228,  276,  275
 229,  228,  229,  277,  276
 230,  229,  230,  278,  277
 231,  230,  231,  279,  278
 232,  231,  232,  280,  279
 233,  232,  233,  281,  280
 234,  233,  234,  282,  281
 235,  234,  235,  283,  282
 236,  235,  236,  284,  283
 237,  236,  237,  285,  284
 238,  237,  238,  286,  285
 239,  238,  239,  287,  286
 240,  239,  240,  288,  287
 241,  288,  241,  289,  336
 242,  241,  242,  290,  289
 243,  242,  243,  291,  290
 244,  243,  244,  292,  291
 245,  244,  245,  293,  292
 246,  245,  246,  294,  293
 247,  246,  247,  295,  294
 248,  247,  248,  296,  295
 249,  248,  249,  297,  296
 250,  249,  250,  298,  297
 251,  250,  251,  299,  298
 252,  251,  252,  300,  299
 253,  252,  253,  301,  300
 254,  253,  254,  302,  301
 255,  254,  255,  303,  302
 256,  255,  256,  304,  303
 257,  256,  257,  305,  304
 258,  257,  258,  306,  305
 259,  258,  259,  307,  306
 260,  259,  260,  308,  307
 261,  260,  261,  309,  308
 262,  261,  262,  310,  309
 263,  262,  263,  311,  310
 264,  263,  264,  312,  311
 265,  264,  265,  313,  312
 266,  265,  266,  314,  313
 267,  266,  267,  315,  314
 268,  267,  268,  316,  315
 269,  268,  269,  317,  316
 270,  269,  270,  318,  317
 271,  270,  271,  319,  318
 272,  271,  272,  320,  319
 273,  272,  273,  321,  320
 274,  273,  274,  322,  321
 275,  274,  275,  323,  322
 276,  275,  276,  324,  323
 277,  276,  277,  325,  324
 278,  277,  278,  326,  325
 279,  278,  279,  327,  326
 280,  279,  280,  328,  327
 281,  280,  281,  329,  328
 282,  281,  282,  330,  329
 283,  282,  283,  331,  330
 284,  283,  284,  332,  331
 285,  284,  285,  333,  332
 286,  285,  286,  334,  333
 287,  286,  287,  335,  334
 288,  287,  288,  336,  335
 289,  336,  289,  337,  384
 290,  289,  290,  338,  337
 291,  290,  291,  339,  338
 292,  291,  292,  340,  339
 293,  292,  293,  341,  340
 294,  293,  294,  342,  341
 295,  294,  295,  343,  342
 296,  295,  296,  344,  343
 297,  296,  297,  345,  344
 298,  297,  298,  346,  345
 299,  298,  299,  347,  346
 300,  299,  300,  348,  347
 301,  300,  301,  349,  348
 302,  301,  302,  350,  349
 303,  302,  303,  351,  350
 304,  303,  304,  352,  351
 305,  304,  305,  353,  352
 306,  305,  306,  354,  353
 307,  306,  307,  355,  354
 308,  307,  308,  356,  355
 309,  308,  309,  357,  356
 310,  309,  310,  358,  357
 311,  310,  311,  359,  358
 312,  311,  312,  360,  359
 313,  312,  313,  361,  360
 314,  313,  314,  362,  361
 315,  314,  315,  363,  362
 316,  315,  316,  364,  363
 317,  316,  317,  365,  364
 318,  317,  318,  366,  365
 319,  318,  319,  367,  366
 320,  319,  320,  368,  367
 321,  320,  321,  369,  368
 322,  321,  322,  370,  369
 323,  322,  323,  371,  370
 324,  323,  324,  372,  371
 325,  324,  325,  373,  372
 326,  325,  326,  374,  373
 327,  326,  327,  375,  374
 328,  327,  328,  376,  375
 329,  328,  329,  377,  376
 330,  329,  330,  378,  377
 331,  330,  331,  379,  378
 332,  331,  332,  380,  379
 333,  332,  333,  381,  380
 334,  333,  334,  382,  381
 335,  334,  335,  383,  382
 336,  335,  336,  384,  383
 337,  384,  337,  385,  432
 338,  337,  338,  386,  385
 339,  338,  339,  387,  386
 340,  339,  340,  388,  387
 341,  340,  341,  389,  388
 342,  341,  342,  390,  389
 343,  342,  343,  391,  390
 344,  343,  344,  392,  391
 345,  344,  345,  393,  392
 346,  345,  346,  394,  393
 347,  346,  347,  395,  394
 348,  347,  348,  396,  395
 349,  348,  349,  397,  396
 350,  349,  350,  398,  397
 351,  350,  351,  399,  398
 352,  351,  352,  400,  399
 353,  352,  353,  401,  400
 354,  353,  354,  402,  401
 355,  354,  355,  403,  402
 356,  355,  356,  404,  403
 357,  356,  357,  405,  404
 358,  357,  358,  406,  405
 359,  358,  359,  407,  406
 360,  359,  360,  408,  407
 361,  360,  361,  409,  408
 362,  361,  362,  410,  409
 363,  362,  363,  411,  410
 364,  363,  364,  412,  411
 365,  364,  365,  413,  412
 366,  365,  366,  414,  413
 367,  366,  367,  415,  414
 368,  367,  368,  416,  415
 369,  368,  369,  417,  416
 370,  369,  370,  418,  417
 371,  370,  371,  419,  418
 372,  371,  372,  420,  419
 373,  372,  373,  421,  420
 374,  373,  374,  422,  421
 375,  374,  375,  423,  422
 376,  375,  376,  424,  423
 377,  376,  377,  425,  424
 378,  377,  378,  426,  425
 379,  378,  379,  427,  426
 380,  379,  380,  428,  427
 381,  380,  381,  429,  428
 382,  381,  382,  430,  429
 383,  382,  383,  431,  430
 384,  383,  384,  432,  431
 385,  432,  385,  433,  480
 386,  385,  386,  434,  433
 387,  386,  387,  435,  434
 388,  387,  388,  436,  435
 389,  388,  389,  437,  436
 390,  389,  390,  438,  437
 391,  390,  391,  439,  438
 392,  391,  392,  440,  439
 393,  392,  393,  441,  440
 394,  393,  394,  442,  441
 395,  394,  395,  443,  442
 396,  395,  396,  444,  443
 397,  396,  397,  445,  444
 398,  397,  398,  446,  445
 399,  398,  399,  447,  446
 400,  399,  400,  448,  447
 401,  400,  401,  449,  448
 402,  401,  402,  450,  449
 403,  402,  403,  451,  450
 404,  403,  404,  452,  451
 405,  404,  405,  453,  452
 406,  405,  406,  454,  453
 407,  406,  407,  455,  454
 408,  407,  408,  456,  455
 409,  408,  409,  457,  456
 410,  409,  410,  458,  457
 411,  410,  411,  459,  458
 412,  411,  412,  460,  459
 413,  412,  413,  461,  460
 414,  413,  414,  462,  461
 415,  414,  415,  463,  462
 416,  415,  416,  464,  463
 417,  416,  417,  465,  464
 418,  417,  418,  466,  465
 419,  418,  419,  467,  466
 420,  419,  420,  468,  467
 421,  420,  421,  469,  468
 422,  421,  422,  470,  469
 423,  422,  423,  471,  470
 424,  423,  424,  472,  471
 425,  424,  425,  473,  472
 426,  425,  426,  474,  473
 427,  426,  427,  475,  474
 428,  427,  428,  476,  475
 429,  428,  429,  477,  476
 430,  429,  430,  478,  477
 431,  430,  431,  479,  478
 432,  431,  432,  480,  479
 433,  480,  433,  481,  528
 434,  433,  434,  482,  481
 435,  434,  435,  483,  482
 436,  435,  436,  484,  483
 437,  436,  437,  485,  484
 438,  437,  438,  486,  485
 439,  438,  439,  487,  486
 440,  439,  440,  488,  487
 441,  440,  441,  489,  488
 442,  441,  442,  490,  489
 443,  442,  443,  491,  490
 444,  443,  444,  492,  491
 445,  444,  445,  493,  492
 446,  445,  446,  494,  493
 447,  446,  447,  495,  494
 448,  447,  448,  496,  495
 449,  448,  449,  497,  496
 450,  449,  450,  498,  497
 451,  450,  451,  499,  498
 452,  451,  452,  500,  499
 453,  452,  453,  501,  500
 454,  453,  454,  502,  501
 455,  454,  455,  503,  502
 456,  455,  456,  504,  503
 457,  456,  457,  505,  504
 458,  457,  458,  506,  505
 459,  458,  459,  507,  506
 460,  459,  460,  508,  507
 461,  460,  461,  509,  508
 462,  461,  462,  510,  509
 463,  462,  463,  511,  510
 464,  463,  464,  512,  511
 465,  464,  465,  513,  512
 466,  465,  466,  514,  513
 467,  466,  467,  515,  514
 468,  467,  468,  516,  515
 469,  468,  469,  517,  516
 470,  469,  470,  518,  517
 471,  470,  471,  519,  518
 472,  471,  472,  520,  519
 473,  472,  473,  521,  520
 474,  473,  474,  522,  521
 475,  474,  475,  523,  522
 476,  475,  476,  524,  523
 477,  476,  477,  525,  524
 478,  477,  478,  526,  525
 479,  478,  479,  527,  526
 480,  479,  480,  528,  527
 481,  528,  481,  529,  576
 482,  481,  482,  530,  529
 483,  482,  483,  531,  530
 484,  483,  484,  532,  531
 485,  484,  485,  533,  532
 486,  485,  486,  534,  533
 487,  486,  487,  535,  534
 488,  487,  488,  536,  535
 489,  488,  489,  537,  536
 490,  489,  490,  538,  537
 491,  490,  491,  539,  538
 492,  491,  492,  540,  539
 493,  492,  493,  541,  540
 494,  493,  494,  542,  541
 495,  494,  495,  543,  542
 496,  495,  496,  544,  543
 497,  496,  497,  545,  544
 498,  497,  498,  546,  545
 499,  498,  499,  547,  546
 500,  499,  500,  548,  547
 501,  500,  501,  549,  548
 502,  501,  502,  550,  549
 503,  502,  503,  551,  550
 504,  503,  504,  552,  551
 505,  504,  505,  553,  552
 506,  505,  506,  554,  553
 507,  506,  507,  555,  554
 508,  507,  508,  556,  555
 509,  508,  509,  557,  556
 510,  509,  510,  558,  557
 511,  510,  511,  559,  558
 512,  511,  512,  560,  559
 513,  512,  513,  561,  560
 514,  513,  514,  562,  561
 515,  514,  515,  563,  562
 516,  515,  516,  564,  563
 517,  516,  517,  565,  564
 518,  517,  518,  566,  565
 519,  518,  519,  567,  566
 520,  519,  520,  568,  567
 521,  520,  521,  569,  568
 522,  521,  522,  570,  569
 523,  522,  523,  571,  570
 524,  523,  524,  572,  571
 525,  524,  525,  573,  572
 526,  525,  526,  574,  573
 527,  526,  527,  575,  574
 528,  527,  528,  576,  575
 529,  576,  529,  577,  624
 530,  529,  530,  578,  577
 531,  530,  531,  579,  578
 532,  531,  532,  580,  579
 533,  532,  533,  581,  580
 534,  533,  534,  582,  581
 535,  534,  535,  583,  582
 536,  535,  536,  584,  583
 537,  536,  537,  585,  584
 538,  537,  538,  586,  585
 539,  538,  539,  587,  586
 540,  539,  540,  588,  587
 541,  540,  541,  589,  588
 542,  541,  542,  590,  589
 543,  542,  543,  591,  590
 544,  543,  544,  592,  591
 545,  544,  545,  593,  592
 546,  545,  546,  594,  593
 547,  546,  547,  595,  594
 548,  547,  548,  596,  595
 549,  548,  549,  597,  596
 550,  549,  550,  598,  597
 551,  550,  551,  599,  598
 552,  551,  552,  600,  599
 553,  552,  553,  601,  600
 554,  553,  554,  602,  601
 555,  554,  555,  603,  602
 556,  555,  556,  604,  603
 557,  556,  557,  605,  604
 558,  557,  558,  606,  605
 559,  558,  559,  607,  606
 560,  559,  560,  608,  607
 561,  560,  561,  609,  608
 562,  561,  562,  610,  609
 563,  562,  563,  611,  610
 564,  563,  564,  612,  611
 565,  564,  565,  613,  612
 566,  565,  566,  614,  613
 567,  566,  567,  615,  614
 568,  567,  568,  616,  615
 569,  568,  569,  617,  616
 570,  569,  570,  618,  617
 571,  570,  571,  619,  618
 572,  571,  572,  620,  619
 573,  572,  573,  621,  620
 574,  573,  574,  622,  621
 575,  574,  575,  623,  622
 576,  575,  576,  624,  623
 577,  624,  577,  625,  672
 578,  577,  578,  626,  625
 579,  578,  579,  627,  626
 580,  579,  580,  628,  627
 581,  580,  581,  629,  628
 582,  581,  582,  630,  629
 583,  582,  583,  631,  630
 584,  583,  584,  632,  631
 585,  584,  585,  633,  632
 586,  585,  586,  634,  633
 587,  586,  587,  635,  634
 588,  587,  588,  636,  635
 589,  588,  589,  637,  636
 590,  589,  590,  638,  637
 591,  590,  591,  639,  638
 592,  591,  592,  640,  639
 593,  592,  593,  641,  640
 594,  593,  594,  642,  641
 595,  594,  595,  643,  642
 596,  595,  596,  644,  643
 597,  596,  597,  645,  644
 598,  597,  598,  646,  645
 599,  598,  599,  647,  646
 600,  599,  600,  648,  647
 601,  600,  601,  649,  648
 602,  601,  602,  650,  649
 603,  602,  603,  651,  650
 604,  603,  604,  652,  651
 605,  604,  605,  653,  652
 606,  605,  606,  654,  653
 607,  606,  607,  655,  654
 608,  607,  608,  656,  655
 609,  608,  609,  657,  656
 610,  609,  610,  658,  657
 611,  610,  611,  659,  658
 612,  611,  612,  660,  659
 613,  612,  613,  661,  660
 614,  613,  614,  662,  661
 615,  614,  615,  663,  662
 616,  615,  616,  664,  663
 617,  616,  617,  665,  664
 618,  617,  618,  666,  665
 619,  618,  619,  667,  666
 620,  619,  620,  668,  667
 621,  620,  621,  669,  668
 622,  621,  622,  670,  669
 623,  622,  623,  671,  670
 624,  623,  624,  672,  671
 625,  672,  625,  673,  720
 626,  625,  626,  674,  673
 627,  626,  627,  675,  674
 628,  627,  628,  676,  675
 629,  628,  629,  677,  676
 630,  629,  630,  678,  677
 631,  630,  631,  679,  678
 632,  631,  632,  680,  679
 633,  632,  633,  681,  680
 634,  633,  634,  682,  681
 635,  634,  635,  683,  682
 636,  635,  636,  684,  683
 637,  636,  637,  685,  684
 638,  637,  638,  686,  685
 639,  638,  639,  687,  686
 640,  639,  640,  688,  687
 641,  640,  641,  689,  688
 642,  641,  642,  690,  689
 643,  642,  643,  691,  690
 644,  643,  644,  692,  691
 645,  644,  645,  693,  692
 646,  645,  646,  694,  693
 647,  646,  647,  695,  694
 648,  647,  648,  696,  695
 649,  648,  649,  697,  696
 650,  649,  650,  698,  697
 651,  650,  651,  699,  698
 652,  651,  652,  700,  699
 653,  652,  653,  701,  700
 654,  653,  654,  702,  701
 655,  654,  655,  703,  702
 656,  655,  656,  704,  703
 657,  656,  657,  705,  704
 658,  657,  658,  706,  705
 659,  658,  659,  707,  706
 660,  659,  660,  708,  707
 661,  660,  661,  709,  708
 662,  661,  662,  710,  709
 663,  662,  663,  711,  710
 664,  663,  664,  712,  711
 665,  664,  665,  713,  712
 666,  665,  666,  714,  713
 667,  666,  667,  715,  714
 668,  667,  668,  716,  715
 669,  668,  669,  717,  716
 670,  669,  670,  718,  717
 671,  670,  671,  719,  718
 672,  671,  672,  720,  719
 673,  720,  673,  721,  768
 674,  673,  674,  722,  721
 675,  674,  675,  723,  722
 676,  675,  676,  724,  723
 677,  676,  677,  725,  724
 678,  677,  678,  726,  725
 679,  678,  679,  727,  726
 680,  679,  680,  728,  727
 681,  680,  681,  729,  728
 682,  681,  682,  730,  729
 683,  682,  683,  731,  730
 684,  683,  684,  732,  731
 685,  684,  685,  733,  732
 686,  685,  686,  734,  733
 687,  686,  687,  735,  734
 688,  687,  688,  736,  735
 689,  688,  689,  737,  736
 690,  689,  690,  738,  737
 691,  690,  691,  739,  738
 692,  691,  692,  740,  739
 693,  692,  693,  741,  740
 694,  693,  694,  742,  741
 695,  694,  695,  743,  742
 696,  695,  696,  744,  743
 697,  696,  697,  745,  744
 698,  697,  698,  746,  745
 699,  698,  699,  747,  746
 700,  699,  700,  748,  747
 701,  700,  701,  749,  748
 702,  701,  702,  750,  749
 703,  702,  703,  751,  750
 704,  703,  704,  752,  751
 705,  704,  705,  753,  752
 706,  705,  706,  754,  753
 707,  706,  707,  755,  754
 708,  707,  708,  756,  755
 709,  708,  709,  757,  756
 710,  709,  710,  758,  757
 711,  710,  711,  759,  758
 712,  711,  712,  760,  759
 713,  712,  713,  761,  760
 714,  713,  714,  762,  761
 715,  714,  715,  763,  762
 716,  715,  716,  764,  763
 717,  716,  717,  765,  764
 718,  717,  718,  766,  765
 719,  718,  719,  767,  766
 720,  719,  720,  768,  767
 721,  768,  721,  769,  816
 722,  721,  722,  770,  769
 723,  722,  723,  771,  770
 724,  723,  724,  772,  771
 725,  724,  725,  773,  772
 726,  725,  726,  774,  773
 727,  726,  727,  775,  774
 728,  727,  728,  776,  775
 729,  728,  729,  777,  776
 730,  729,  730,  778,  777
 731,  730,  731,  779,  778
 732,  731,  732,  780,  779
 733,  732,  733,  781,  780
 734,  733,  734,  782,  781
 735,  734,  735,  783,  782
 736,  735,  736,  784,  783
 737,  736,  737,  785,  784
 738,  737,  738,  786,  785
 739,  738,  739,  787,  786
 740,  739,  740,  788,  787
 741,  740,  741,  789,  788
 742,  741,  742,  790,  789
 743,  742,  743,  791,  790
 744,  743,  744,  792,  791
 745,  744,  745,  793,  792
 746,  745,  746,  794,  793
 747,  746,  747,  795,  794
 748,  747,  748,  796,  795
 749,  748,  749,  797,  796
 750,  749,  750,  798,  797
 751,  750,  751,  799,  798
 752,  751,  752,  800,  799
 753,  752,  753,  801,  800
 754,  753,  754,  802,  801
 755,  754,  755,  803,  802
 756,  755,  756,  804,  803
 757,  756,  757,  805,  804
 758,  757,  758,  806,  805
 759,  758,  759,  807,  806
 760,  759,  760,  808,  807
 761,  760,  761,  809,  808
 762,  761,  762,  810,  809
 763,  762,  763,  811,  810
 764,  763,  764,  812,  811
 765,  764,  765,  813,  812
 766,  765,  766,  814,  813
 767,  766,  767,  815,  814
 768,  767,  768,  816,  815
 769,  816,  769,  817,  864
 770,  769,  770,  818,  817
 771,  770,  771,  819,  818
 772,  771,  772,  820,  819
 773,  772,  773,  821,  820
 774,  773,  774,  822,  821
 775,  774,  775,  823,  822
 776,  775,  776,  824,  823
 777,  776,  777,  825,  824
 778,  777,  778,  826,  825
 779,  778,  779,  827,  826
 780,  779,  780,  828,  827
 781,  780,  781,  829,  828
 782,  781,  782,  830,  829
 783,  782,  783,  831,  830
 784,  783,  784,  832,  831
 785,  784,  785,  833,  832
 786,  785,  786,  834,  833
 787,  786,  787,  835,  834
 788,  787,  788,  836,  835
 789,  788,  789,  837,  836
 790,  789,  790,  838,  837
 791,  790,  791,  839,  838
 792,  791,  792,  840,  839
 793,  792,  793,  841,  840
 794,  793,  794,  842,  841
 795,  794,  795,  843,  842
 796,  795,  796,  844,  843
 797,  796,  797,  845,  844
 798,  797,  798,  846,  845
 799,  798,  799,  847,  846
 800,  799,  800,  848,  847
 801,  800,  801,  849,  848
 802,  801,  802,  850,  849
 803,  802,  803,  851,  850
 804,  803,  804,  852,  851
 805,  804,  805,  853,  852
 806,  805,  806,  854,  853
 807,  806,  807,  855,  854
 808,  807,  808,  856,  855
 809,  808,  809,  857,  856
 810,  809,  810,  858,  857
 811,  810,  811,  859,  858
 812,  811,  812,  860,  859
 813,  812,  813,  861,  860
 814,  813,  814,  862,  861
 815,  814,  815,  863,  862
 816,  815,  816,  864,  863
 817,  864,  817,  865,  912
 818,  817,  818,  866,  865
 819,  818,  819,  867,  866
 820,  819,  820,  868,  867
 821,  820,  821,  869,  868
 822,  821,  822,  870,  869
 823,  822,  823,  871,  870
 824,  823,  824,  872,  871
 825,  824,  825,  873,  872
 826,  825,  826,  874,  873
 827,  826,  827,  875,  874
 828,  827,  828,  876,  875
 829,  828,  829,  877,  876
 830,  829,  830,  878,  877
 831,  830,  831,  879,  878
 832,  831,  832,  880,  879
 833,  832,  833,  881,  880
 834,  833,  834,  882,  881
 835,  834,  835,  883,  882
 836,  835,  836,  884,  883
 837,  836,  837,  885,  884
 838,  837,  838,  886,  885
 839,  838,  839,  887,  886
 840,  839,  840,  888,  887
 841,  840,  841,  889,  888
 842,  841,  842,  890,  889
 843,  842,  843,  891,  890
 844,  843,  844,  892,  891
 845,  844,  845,  893,  892
 846,  845,  846,  894,  893
 847,  846,  847,  895,  894
 848,  847,  848,  896,  895
 849,  848,  849,  897,  896
 850,  849,  850,  898,  897
 851,  850,  851,  899,  898
 852,  851,  852,  900,  899
 853,  852,  853,  901,  900
 854,  853,  854,  902,  901
 855,  854,  855,  903,  902
 856,  855,  856,  904,  903
 857,  856,  857,  905,  904
 858,  857,  858,  906,  905
 859,  858,  859,  907,  906
 860,  859,  860,  908,  907
 861,  860,  861,  909,  908
 862,  861,  862,  910,  909
 863,  862,  863,  911,  910
 864,  863,  864,  912,  911
 865,  912,  865,  913,  960
 866,  865,  866,  914,  913
 867,  866,  867,  915,  914
 868,  867,  868,  916,  915
 869,  868,  869,  917,  916
 870,  869,  870,  918,  917
 871,  870,  871,  919,  918
 872,  871,  872,  920,  919
 873,  872,  873,  921,  920
 874,  873,  874,  922,  921
 875,  874,  875,  923,  922
 876,  875,  876,  924,  923
 877,  876,  877,  925,  924
 878,  877,  878,  926,  925
 879,  878,  879,  927,  926
 880,  879,  880,  928,  927
 881,  880,  881,  929,  928
 882,  881,  882,  930,  929
 883,  882,  883,  931,  930
 884,  883,  884,  932,  931
 885,  884,  885,  933,  932
 886,  885,  886,  934,  933
 887,  886,  887,  935,  934
 888,  887,  888,  936,  935
 889,  888,  889,  937,  936
 890,  889,  890,  938,  937
 891,  890,  891,  939,  938
 892,  891,  892,  940,  939
 893,  892,  893,  941,  940
 894,  893,  894,  942,  941
 895,  894,  895,  943,  942
 896,  895,  896,  944,  943
 897,  896,  897,  945,  944
 898,  897,  898,  946,  945
 899,  898,  899,  947,  946
 900,  899,  900,  948,  947
 901,  900,  901,  949,  948
 902,  901,  902,  950,  949
 903,  902,  903,  951,  950
 904,  903,  904,  952,  951
 905,  904,  905,  953,  952
 906,  905,  906,  954,  953
 907,  906,  907,  955,  954
 908,  907,  908,  956,  955
 909,  908,  909,  957,  956
 910,  909,  910,  958,  957
 911,  910,  911,  959,  958
 912,  911,  912,  960,  959
 913,  960,  913,  961, 1008
 914,  913,  914,  962,  961
 915,  914,  915,  963,  962
 916,  915,  916,  964,  963
 917,  916,  917,  965,  964
 918,  917,  918,  966,  965
 919,  918,  919,  967,  966
 920,  919,  920,  968,  967
 921,  920,  921,  969,  968
 922,  921,  922,  970,  969
 923,  922,  923,  971,  970
 924,  923,  924,  972,  971
 925,  924,  925,  973,  972
 926,  925,  926,  974,  973
 927,  926,  927,  975,  974
 928,  927,  928,  976,  975
 929,  928,  929,  977,  976
 930,  929,  930,  978,  977
 931,  930,  931,  979,  978
 932,  931,  932,  980,  979
 933,  932,  933,  981,  980
 934,  933,  934,  982,  981
 935,  934,  935,  983,  982
 936,  935,  936,  984,  983
 937,  936,  937,  985,  984
 938,  937,  938,  986,  985
 939,  938,  939,  987,  986
 940,  939,  940,  988,  987
 941,  940,  941,  989,  988
 942,  941,  942,  990,  989
 943,  942,  943,  991,  990
 944,  943,  944,  992,  991
 945,  944,  945,  993,  992
 946,  945,  946,  994,  993
 947,  946,  947,  995,  994
 948,  947,  948,  996,  995
 949,  948,  949,  997,  996
 950,  949,  950,  998,  997
 951,  950,  951,  999,  998
 952,  951,  952, 1000,  999
 953,  952,  953, 1001, 1000
 954,  953,  954, 1002, 1001
 955,  954,  955, 1003, 1002
 956,  955,  956, 1004, 1003
 957,  956,  957, 1005, 1004
 958,  957,  958, 1006, 1005
 959,  958,  959, 1007, 1006
 960,  959,  960, 1008, 1007
 961, 1008,  961, 1009, 1056
 962,  961,  962, 1010, 1009
 963,  962,  963, 1011, 1010
 964,  963,  964, 1012, 1011
 965,  964,  965, 1013, 1012
 966,  965,  966, 1014, 1013
 967,  966,  967, 1015, 1014
 968,  967,  968, 1016, 1015
 969,  968,  969, 1017, 1016
 970,  969,  970, 1018, 1017
 971,  970,  971, 1019, 1018
 972,  971,  972, 1020, 1019
 973,  972,  973, 1021, 1020
 974,  973,  974, 1022, 1021
 975,  974,  975, 1023, 1022
 976,  975,  976, 1024, 1023
 977,  976,  977, 1025, 1024
 978,  977,  978, 1026, 1025
 979,  978,  979, 1027, 1026
 980,  979,  980, 1028, 1027
 981,  980,  981, 1029, 1028
 982,  981,  982, 1030, 1029
 983,  982,  983, 1031, 1030
 984,  983,  984, 1032, 1031
 985,  984,  985, 1033, 1032
 986,  985,  986, 1034, 1033
 987,  986,  987, 1035, 1034
 988,  987,  988, 1036, 1035
 989,  988,  989, 1037, 1036
 990,  989,  990, 1038, 1037
 991,  990,  991, 1039, 1038
 992,  991,  992, 1040, 1039
 993,  992,  993, 1041, 1040
 994,  993,  994, 1042, 1041
 995,  994,  995, 1043, 1042
 996,  995,  996, 1044, 1043
 997,  996,  997, 1045, 1044
 998,  997,  998, 1046, 1045
 999,  998,  999, 1047, 1046
1000,  999, 1000, 1048, 1047
1001, 1000, 1001, 1049, 1048
1002, 1001, 1002, 1050, 1049
1003, 1002, 1003, 1051, 1050
1004, 1003, 1004, 1052, 1051
1005, 1004, 1005, 1053, 1052
1006, 1005, 1006, 1054, 1053
1007, 1006, 1007, 1055, 1054
1008, 1007, 1008, 1056, 1055
1009, 1056, 1009, 1057, 1104
1010, 1009, 1010, 1058, 1057
1011, 1010, 1011, 1059, 1058
1012, 1011, 1012, 1060, 1059
1013, 1012, 1013, 1061, 1060
1014, 1013, 1014, 1062, 1061
1015, 1014, 1015, 1063, 1062
1016, 1015, 1016, 1064, 1063
1017, 1016, 1017, 1065, 1064
1018, 1017, 1018, 1066, 1065
1019, 1018, 1019, 1067, 1066
1020, 1019, 1020, 1068, 1067
1021, 1020, 1021, 1069, 1068
1022, 1021, 1022, 1070, 1069
1023, 1022, 1023, 1071, 1070
1024, 1023, 1024, 1072, 1071
1025, 1024, 1025, 1073, 1072
1026, 1025, 1026, 1074, 1073
1027, 1026, 1027, 1075, 1074
1028, 1027, 1028, 1076, 1075
1029, 1028, 1029, 1077, 1076
1030, 1029, 1030, 1078, 1077
1031, 1030, 1031, 1079, 1078
1032, 1031, 1032, 1080, 1079
1033, 1032, 1033, 1081, 1080
1034, 1033, 1034, 1082, 1081
1035, 1034, 1035, 1083, 1082
1036, 1035, 1036, 1084, 1083
1037, 1036, 1037, 1085, 1084
1038, 1037, 1038, 1086, 1085
1039, 1038, 1039, 1087, 1086
1040, 1039, 1040, 1088, 1087
1041, 1040, 1041, 1089, 1088
1042, 1041, 1042, 1090, 1089
1043, 1042, 1043, 1091, 1090
1044, 1043, 1044, 1092, 1091
1045, 1044, 1045, 1093, 1092
1046, 1045, 1046, 1094, 1093
1047, 1046, 1047, 1095, 1094
1048, 1047, 1048, 1096, 1095
1049, 1048, 1049, 1097, 1096
1050, 1049, 1050, 1098, 1097
1051, 1050, 1051, 1099, 1098
1052, 1051, 1052, 1100, 1099
1053, 1052, 1053, 1101, 1100
1054, 1053, 1054, 1102, 1101
1055, 1054, 1055, 1103, 1102
1056, 1055, 1056, 1104, 1103
1057, 1104, 1057, 1105, 1152
1058, 1057, 1058, 1106, 1105
1059, 1058, 1059, 1107, 1106
1060, 1059, 1060, 1108, 1107
1061, 1060, 1061, 1109, 1108
1062, 1061, 1062, 1110, 1109
1063, 1062, 1063, 1111, 1110
1064, 1063, 1064, 1112, 1111
1065, 1064, 1065, 1113, 1112
1066, 1065, 1066, 1114, 1113
1067, 1066, 1067, 1115, 1114
1068, 1067, 1068, 1116, 1115
1069, 1068, 1069, 1117, 1116
1070, 1069, 1070, 1118, 1117
1071, 1070, 1071, 1119, 1118
1072, 1071, 1072, 1120, 1119
1073, 1072, 1073, 1121, 1120
1074, 1073, 1074, 1122, 1121
1075, 1074, 1075, 1123, 1122
1076, 1075, 1076, 1124, 1123
1077, 1076, 1077, 1125, 1124
1078, 1077, 1078, 1126, 1125
1079, 1078, 1079, 1127, 1126
1080, 1079, 1080, 1128, 1127
1081, 1080, 1081, 1129, 1128
1082, 1081, 1082, 1130, 1129
1083, 1082, 1083, 1131, 1130
1084, 1083, 1084, 1132, 1131
1085, 1084, 1085, 1133, 1132
1086, 1085, 1086, 1134, 1133
1087, 1086, 1087, 1135, 1134
1088, 1087, 1088, 1136, 1135
1089, 1088, 1089, 1137, 1136
1090, 1089, 1090, 1138, 1137
1091, 1090, 1091, 1139, 1138
1092, 1091, 1092, 1140, 1139
1093, 1092, 1093, 1141, 1140
1094, 1093, 1094, 1142, 1141
1095, 1094, 1095, 1143, 1142
1096, 1095, 1096, 1144, 1143
1097, 1096, 1097, 1145, 1144
1098, 1097, 1098, 1146, 1145
1099, 1098, 1099, 1147, 1146
1100, 1099, 1100, 1148, 1147
1101, 1100, 1101, 1149, 1148
1102, 1101, 1102, 1150, 1149
1103, 1102, 1103, 1151, 1150
1104, 1103, 1104, 1152, 1151
1105, 1152, 1105, 1153, 1200
1106, 1105, 1106, 1154, 1153
1107, 1106, 1107, 1155, 1154
1108, 1107, 1108, 1156, 1155
1109, 1108, 1109, 1157, 1156
1110, 1109, 1110, 1158, 1157
1111, 1110, 1111, 1159, 1158
1112, 1111, 1112, 1160, 1159
1113, 1112, 1113, 1161, 1160
1114, 1113, 1114, 1162, 1161
1115, 1114, 1115, 1163, 1162
1116, 1115, 1116, 1164, 1163
1117, 1116, 1117, 1165, 1164
1118, 1117, 1118, 1166, 1165
1119, 1118, 1119, 1167, 1166
1120, 1119, 1120, 1168, 1167
1121, 1120, 1121, 1169, 1168
1122, 1121, 1122, 1170, 1169
1123, 1122, 1123, 1171, 1170
1124, 1123, 1124, 1172, 1171
1125, 1124, 1125, 1173, 1172
1126, 1125, 1126, 1174, 1173
1127, 1126, 1127, 1175, 1174
1128, 1127, 1128, 1176, 1175
1129, 1128, 1129, 1177, 1176
1130, 1129, 1130, 1178, 1177
1131, 1130, 1131, 1179, 1178
1132, 1131, 1132, 1180, 1179
1133, 1132, 1133, 1181, 1180
1134, 1133, 1134, 1182, 1181
1135, 1134, 1135, 1183, 1182
1136, 1135, 1136, 1184, 1183
1137, 1136, 1137, 1185, 1184
1138, 1137, 1138, 1186, 1185
1139, 1138, 1139, 1187, 1186
1140, 1139, 1140, 1188, 1187
1141, 1140, 1141, 1189, 1188
1142, 1141, 1142, 1190, 1189
1143, 1142, 1143, 1191, 1190
1144, 1143, 1144, 1192, 1191
1145, 1144, 1145, 1193, 1192
1146, 1145, 1146, 1194, 1193
1147, 1146, 1147, 1195, 1194
1148, 1147, 1148, 1196, 1195
1149, 1148, 1149, 1197, 1196
1150, 1149, 1150, 1198, 1197
1151, 1150, 1151, 1199, 1198
1152, 1151, 1152, 1200, 1199
1153, 1200, 1153, 1201, 1248
1154, 1153, 1154, 1202, 1201
1155, 1154, 1155, 1203, 1202
1156, 1155, 1156, 1204, 1203
1157, 1156, 1157, 1205, 1204
1158, 1157, 1158, 1206, 1205
1159, 1158, 1159, 1207, 1206
1160, 1159, 1160, 1208, 1207
1161, 1160, 1161, 1209, 1208
1162, 1161, 1162, 1210, 1209
1163, 1162, 1163, 1211, 1210
1164, 1163, 1164, 1212, 1211
1165, 1164, 1165, 1213, 1212
1166, 1165, 1166, 1214, 1213
1167, 1166, 1167, 1215, 1214
1168, 1167, 1168, 1216, 1215
1169, 1168, 1169, 1217, 1216
1170, 1169, 1170, 1218, 1217
1171, 1170, 1171, 1219, 1218
1172, 1171, 1172, 1220, 1219
1173, 1172, 1173, 1221, 1220
1174, 1173, 1174, 1222, 1221
1175, 1174, 1175, 1223, 1222
1176, 1175, 1176, 1224, 1223
1177, 1176, 1177, 1225, 1224
1178, 1177, 1178, 1226, 1225
1179, 1178, 1179, 1227, 1226
1180, 1179, 1180, 1228, 1227
1181, 1180, 1181, 1229, 1228
1182, 1181, 1182, 1230, 1229
1183, 1182, 1183, 1231, 1230
1184, 1183, 1184, 1232, 1231
1185, 1184, 1185, 1233, 1232
1186, 1185, 1186, 1234, 1233
1187, 1186, 1187, 1235, 1234
1188, 1187, 1188, 1236, 1235
1189, 1188, 1189, 1237, 1236
1190, 1189, 1190, 1238, 1237
1191, 1190, 1191, 1239, 1238
1192, 1191, 1192, 1240, 1239
1193, 1192, 1193, 1241, 1240
1194, 1193, 1194, 1242, 1241
1195, 1194, 1195, 1243, 1242
1196, 1195, 1196, 1244, 1243
1197, 1196, 1197, 1245, 1244
1198, 1197, 1198, 1246, 1245
1199, 1198, 1199, 1247, 1246
1200, 1199, 1200, 1248, 1247
1201, 1248, 1201, 1249, 1296
1202, 1201, 1202, 1250, 1249
1203, 1202, 1203, 1251, 1250
1204, 1203, 1204, 1252, 1251
1205, 1204, 1205, 1253, 1252
1206, 1205, 1206, 1254, 1253
1207, 1206, 1207, 1255, 1254
1208, 1207, 1208, 1256, 1255
1209, 1208, 1209, 1257, 1256
1210, 1209, 1210, 1258, 1257
1211, 1210, 1211, 1259, 1258
1212, 1211, 1212, 1260, 1259
1213, 1212, 1213, 1261, 1260
1214, 1213, 1214, 1262, 1261
1215, 1214, 1215, 1263, 1262
1216, 1215, 1216, 1264, 1263
1217, 1216, 1217, 1265, 1264
1218, 1217, 1218, 1266, 1265
1219, 1218, 1219, 1267, 1266
1220, 1219, 1220, 1268, 1267
1221, 1220, 1221, 1269, 1268
1222, 1221, 1222, 1270, 1269
1223, 1222, 1223, 1271, 1270
1224, 1223, 1224, 1272, 1271
1225, 1224, 1225, 1273, 1272
1226, 1225, 1226, 1274, 1273
1227, 1226, 1227, 1275, 1274
1228, 1227, 1228, 1276, 1275
1229, 1228, 1229, 1277, 1276
1230, 1229, 1230, 1278, 1277
1231, 1230, 1231, 1279, 1278
1232, 1231, 1232, 1280, 1279
1233, 1232, 1233, 1281, 1280
1234, 1233, 1234, 1282, 1281
1235, 1234, 1235, 1283, 1282
1236, 1235, 1236, 1284, 1283
1237, 1236, 1237, 1285, 1284
1238, 1237, 1238, 1286, 1285
1239, 1238, 1239, 1287, 1286
1240, 1239, 1240, 1288, 1287
1241, 1240, 1241, 1289, 1288
1242, 1241, 1242, 1290, 1289
1243, 1242, 1243, 1291, 1290
1244, 1243, 1244, 1292, 1291
1245, 1244, 1245, 1293, 1292
1246, 1245, 1246, 1294, 1293
1247, 1246, 1247, 1295, 1294
1248, 1247, 1248, 1296, 1295
1249, 1296, 1249, 1297, 1344
1250, 1249, 1250, 1298, 1297
1251, 1250, 1251, 1299, 1298
1252, 1251, 1252, 1300, 1299
1253, 1252, 1253, 1301, 1300
1254, 1253, 1254, 1302, 1301
1255, 1254, 1255, 1303, 1302
1256, 1255, 1256, 1304, 1303
1257, 1256, 1257, 1305, 1304
1258, 1257, 1258, 1306, 1305
1259, 1258, 1259, 1307, 1306
1260, 1259, 1260, 1308, 1307
1261, 1260, 1261, 1309, 1308
1262, 1261, 1262, 1310, 1309
1263, 1262, 1263, 1311, 1310
1264, 1263, 1264, 1312, 1311
1265, 1264, 1265, 1313, 1312
1266, 1265, 1266, 1314, 1313
1267, 1266, 1267, 1315, 1314
1268, 1267, 1268, 1316, 1315
1269, 1268, 1269, 1317, 1316
1270, 1269, 1270, 1318, 1317
1271, 1270, 1271, 1319, 1318
1272, 1271, 1272, 1320, 1319
1273, 1272, 1273, 1321, 1320
1274, 1273, 1274, 1322, 1321
1275, 1274, 1275, 1323, 1322
1276, 1275, 1276, 1324, 1323
1277, 1276, 1277, 1325, 1324
1278, 1277, 1278, 1326, 1325
1279, 1278, 1279, 1327, 1326
1280, 1279, 1280, 1328, 1327
1281, 1280, 1281, 1329, 1328
1282, 1281, 1282, 1330, 1329
1283, 1282, 1283, 1331, 1330
1284, 1283, 1284, 1332, 1331
1285, 1284, 1285, 1333, 1332
1286, 1285, 1286, 1334, 1333
1287, 1286, 1287, 1335, 1334
1288, 1287, 1288, 1336, 1335
1289, 1288, 1289, 1337, 1336
1290, 1289, 1290, 1338, 1337
1291, 1290, 1291, 1339, 1338
1292, 1291, 1292, 1340, 1339
1293, 1292, 1293, 1341, 1340
1294, 1293, 1294, 1342, 1341
1295, 1294, 1295, 1343, 1342
1296, 1295, 1296, 1344, 1343
1297, 1344, 1297, 1345, 1392
1298, 1297, 1298, 1346, 1345
1299, 1298, 1299, 1347, 1346
1300, 1299, 1300, 1348, 1347
1301, 1300, 1301, 1349, 1348
1302, 1301, 1302, 1350, 1349
1303, 1302, 1303, 1351, 1350
1304, 1303, 1304, 1352, 1351
1305, 1304, 1305, 1353, 1352
1306, 1305, 1306, 1354, 1353
1307, 1306, 1307, 1355, 1354
1308, 1307, 1308, 1356, 1355
1309, 1308, 1309, 1357, 1356
1310, 1309, 1310, 1358, 1357
1311, 1310, 1311, 1359, 1358
1312, 1311, 1312, 1360, 1359
1313, 1312, 1313, 1361, 1360
1314, 1313, 1314, 1362, 1361
1315, 1314, 1315, 1363, 1362
1316, 1315, 1316, 1364, 1363
1317, 1316, 1317, 1365, 1364
1318, 1317, 1318, 1366, 1365
1319, 1318, 1319, 1367, 1366
1320, 1319, 1320, 1368, 1367
1321, 1320, 1321, 1369, 1368
1322, 1321, 1322, 1370, 1369
1323, 1322, 1323, 1371, 1370
1324, 1323, 1324, 1372, 1371
1325, 1324, 1325, 1373, 1372
1326, 1325, 1326, 1374, 1373
1327, 1326, 1327, 1375, 1374
1328, 1327, 1328, 1376, 1375
1329, 1328, 1329, 1377, 1376
1330, 1329, 1330, 1378, 1377
1331, 1330, 1331, 1379, 1378
1332, 1331, 1332, 1380, 1379
1333, 1332, 1333, 1381, 1380
1334, 1333, 1334, 1382, 1381
1335, 1334, 1335, 1383, 1382
1336, 1335, 1336, 1384, 1383
1337, 1336, 1337, 1385, 1384
1338, 1337, 1338, 1386, 1385
1339, 1338, 1339, 1387, 1386
1340, 1339, 1340, 1388, 1387
1341, 1340, 1341, 1389, 1388
1342, 1341, 1342, 1390, 1389
1343, 1342, 1343, 1391, 1390
1344, 1343, 1344, 1392, 1391
1345, 1392, 1345, 1393, 1440
1346, 1345, 1346, 1394, 1393
1347, 1346, 1347, 1395, 1394
1348, 1347, 1348, 1396, 1395
1349, 1348, 1349, 1397, 1396
1350, 1349, 1350, 1398, 1397
1351, 1350, 1351, 1399, 1398
1352, 1351, 1352, 1400, 1399
1353, 1352, 1353, 1401, 1400
1354, 1353, 1354, 1402, 1401
1355, 1354, 1355, 1403, 1402
1356, 1355, 1356, 1404, 1403
1357, 1356, 1357, 1405, 1404
1358, 1357, 1358, 1406, 1405
1359, 1358, 1359, 1407, 1406
1360, 1359, 1360, 1408, 1407
1361, 1360, 1361, 1409, 1408
1362, 1361, 1362, 1410, 1409
1363, 1362, 1363, 1411, 1410
1364, 1363, 1364, 1412, 1411
1365, 1364, 1365, 1413, 1412
1366, 1365, 1366, 1414, 1413
1367, 1366, 1367, 1415, 1414
1368, 1367, 1368, 1416, 1415
1369, 1368, 1369, 1417, 1416
1370, 1369, 1370, 1418, 1417
1371, 1370, 1371, 1419, 1418
1372, 1371, 1372, 1420, 1419
1373, 1372, 1373, 1421, 1420
1374, 1373, 1374, 1422, 1421
1375, 1374, 1375, 1423, 1422
1376, 1375, 1376, 1424, 1423
1377, 1376, 1377, 1425, 1424
1378, 1377, 1378, 1426, 1425
1379, 1378, 1379, 1427, 1426
1380, 1379, 1380, 1428, 1427
1381, 1380, 1381, 1429, 1428
1382, 1381, 1382, 1430, 1429
1383, 1382, 1383, 1431, 1430
1384, 1383, 1384, 1432, 1431
1385, 1384, 1385, 1433, 1432
1386, 1385, 1386, 1434, 1433
1387, 1386, 1387, 1435, 1434
1388, 1387, 1388, 1436, 1435
1389, 1388, 1389, 1437, 1436
1390, 1389, 1390, 1438, 1437
1391, 1390, 1391, 1439, 1438
1392, 1391, 1392, 1440, 1439
1393, 1440, 1393, 1441, 1488
1394, 1393, 1394, 1442, 1441
1395, 1394, 1395, 1443, 1442
1396, 1395, 1396, 1444, 1443
1397, 1396, 1397, 1445, 1444
1398, 1397, 1398, 1446, 1445
1399, 1398, 1399, 1447, 1446
1400, 1399, 1400, 1448, 1447
1401, 1400, 1401, 1449, 1448
1402, 1401, 1402, 1450, 1449
1403, 1402, 1403, 1451, 1450
1404, 1403, 1404, 1452, 1451
1405, 1404, 1405, 1453, 1452
1406, 1405, 1406, 1454, 1453
1407, 1406, 1407, 1455, 1454
1408, 1407, 1408, 1456, 1455
1409, 1408, 1409, 1457, 1456
1410, 1409, 1410, 1458, 1457
1411, 1410, 1411, 1459, 1458
1412, 1411, 1412, 1460, 1459
1413, 1412, 1413, 1461, 1460
1414, 1413, 1414, 1462, 1461
1415, 1414, 1415, 1463, 1462
1416, 1415, 1416, 1464, 1463
1417, 1416, 1417, 1465, 1464
1418, 1417, 1418, 1466, 1465
1419, 1418, 1419, 1467, 1466
1420, 1419, 1420, 1468, 1467
1421, 1420, 1421, 1469, 1468
1422, 1421, 1422, 1470, 1469
1423, 1422, 1423, 1471, 1470
1424, 1423, 1424, 1472, 1471
1425, 1424, 1425, 1473, 1472
1426, 1425, 1426, 1474, 1473
1427, 1426, 1427, 1475, 1474
1428, 1427, 1428, 1476, 1475
1429, 1428, 1429, 1477, 1476
1430, 1429, 1430, 1478, 1477
1431, 1430, 1431, 1479, 1478
1432, 1431, 1432, 1480, 1479
1433, 1432, 1433, 1481, 1480
1434, 1433, 1434, 1482, 1481
1435, 1434, 1435, 1483, 1482
1436, 1435, 1436, 1484, 1483
1437, 1436, 1437, 1485, 1484
1438, 1437, 1438, 1486, 1485
1439, 1438, 1439, 1487, 1486
1440, 1439, 1440, 1488, 1487
*Orientation, name=Ori-1
1., 0., 0., 0., 1., 0.
1, 0.
** Region: (CompositeLayup-1-1: Generated From Layup)
*Elset, elset=CompositeLayup-1-1, generate
    1,  1440,     1
** Section: CompositeLayup-1-1
*Shell Section, elset=CompositeLayup-1-1, composite, orientation=Ori-1, density=0., layup=CompositeLayup-1
0.14205, 3, Composite, 90., Ply-1
0.14205, 3, Composite, 90., Ply-2
0.14205, 3, Composite, 90., Ply-3
0.14205, 3, Composite, 90., Ply-4
0.14205, 3, Composite, 90., Ply-5
0.14205, 3, Composite, 45., Ply-6
0.14205, 3, Composite, -45., Ply-7
0.14205, 3, Composite, 0., Ply-8
0.14205, 3, Composite, 90., Ply-9
0.14205, 3, Composite, 45., Ply-10
0.14205, 3, Composite, -45., Ply-11
0.14205, 3, Composite, 0., Ply-12
0.14205, 3, Composite, 90., Ply-13
0.14205, 3, Composite, 45., Ply-14
0.14205, 3, Composite, -45., Ply-15
0.14205, 3, Composite, 0., Ply-16
0.14205, 3, Composite, 90., Ply-17
0.14205, 3, Composite, 45., Ply-18
0.14205, 3, Composite, -45., Ply-19
0.14205, 3, Composite, 0., Ply-20
0.14205, 3, Composite, 90., Ply-21
0.14205, 3, Composite, 45., Ply-22
0.14205, 3, Composite, -45., Ply-23
0.14205, 3, Composite, 0., Ply-24
0.14205, 3, Composite, 90., Ply-25
0.14205, 3, Composite, 45., Ply-26
0.14205, 3, Composite, -45., Ply-27
0.14205, 3, Composite, 0., Ply-28
0.14205, 3, Composite, 90., Ply-29
0.14205, 3, Composite, 45., Ply-30
0.14205, 3, Composite, -45., Ply-31
0.14205, 3, Composite, 0., Ply-32
0.14205, 3, Composite, 90., Ply-33
0.14205, 3, Composite, 45., Ply-34
0.14205, 3, Composite, -45., Ply-35
0.14205, 3, Composite, 0., Ply-36
0.14205, 3, Composite, 90., Ply-37
0.14205, 3, Composite, 90., Ply-38
0.14205, 3, Composite, 90., Ply-39
0.14205, 3, Composite, 90., Ply-40
*End Part
**
**
** ASSEMBLY
**
*Assembly, name=Assembly
**
*Instance, name=CompositeHull-1, part=CompositeHull
*End Instance
**
*Nset, nset=_PickedSet5, internal, instance=CompositeHull-1, generate
  1,  48,   1
*Elset, elset=_PickedSet5, internal, instance=CompositeHull-1, generate
  1,  48,   1
*Nset, nset=_PickedSet6, internal, instance=CompositeHull-1, generate
 1441,  1488,     1
*Elset, elset=_PickedSet6, internal, instance=CompositeHull-1, generate
 1393,  1440,     1
*Elset, elset=__PickedSurf4_SPOS, internal, instance=CompositeHull-1, generate
    1,  1440,     1
*Surface, type=ELEMENT, name=_PickedSurf4, internal
__PickedSurf4_SPOS, SPOS
*End Assembly
**
** MATERIALS
**
*Material, name=Composite
*Density
 1.55e-09,
*Elastic, type=LAMINA
102000.,7000., 0.16,3350.,3350.,2680.
*Fail Stress
1400.,1050.,  28., 105.,  75.,   0.,   0.
**
** BOUNDARY CONDITIONS
**
** Name: BC-End-0 Type: �Գ�/���Գ�/��ȫ�̶�
*Boundary
_PickedSet5, ENCASTRE
** Name: BC-End-1 Type: �Գ�/���Գ�/��ȫ�̶�
*Boundary
_PickedSet6, ENCASTRE
** ----------------------------------------------------------------
**
** STEP: Step-1
**
*Step, name=Step-1, nlgeom=NO, perturbation
*Buckle
8, , 12, 300
**
** BOUNDARY CONDITIONS
**
** Name: BC-End-0 Type: �Գ�/���Գ�/��ȫ�̶�
*Boundary, op=NEW, load case=1
_PickedSet5, ENCASTRE
*Boundary, op=NEW, load case=2
_PickedSet5, ENCASTRE
** Name: BC-End-1 Type: �Գ�/���Գ�/��ȫ�̶�
*Boundary, op=NEW, load case=1
_PickedSet6, ENCASTRE
*Boundary, op=NEW, load case=2
_PickedSet6, ENCASTRE
**
** LOADS
**
** Name: ExternalPressure   Type: Pressure
*Dsload
_PickedSurf4, P, 1.
**
** OUTPUT REQUESTS
**
*Restart, write, frequency=0
**
** FIELD OUTPUT: F-Output-1
**
*Output, field, variable=PRESELECT
*Node File
U
*End Step
