*Heading
 CSDM_cph pressure hull first-mode imperfection Riks postbuckling
** Job name: C3_post Model name: CPH_Post_Model
** Generated by: Abaqus/CAE 2023
*Preprint, echo=NO, model=NO, history=NO, contact=NO
**
** PARTS
**
*Part, name=CompositeHull
*Node
      1,   177.127197,           0.,  -22.3763695
      2,   172.925995,           0.,  -44.3998489
      3,    165.99765,           0.,   -65.723114
      4,   156.451416,           0.,  -86.0098953
      5,   144.437851,           0.,  -104.940239
      6,   130.146408,           0.,  -122.215614
      7,    113.80249,           0.,  -137.563583
      8,   95.6638336,           0.,  -150.742081
      9,   76.0165024,           0.,  -161.543304
     10,   55.1703491,           0.,  -169.796875
     11,   33.4541245,           0.,   -175.37265
     12,   11.2103052,           0.,  -178.182709
     13,  -11.2103052,           0.,  -178.182709
     14,  -33.4541245,           0.,   -175.37265
     15,  -55.1703491,           0.,  -169.796875
     16,  -76.0165024,           0.,  -161.543304
     17,  -95.6638336,           0.,  -150.742081
     18,   -113.80249,           0.,  -137.563583
     19,  -130.146408,           0.,  -122.215614
     20,  -144.437851,           0.,  -104.940239
     21,  -156.451416,           0.,  -86.0098953
     22,   -165.99765,           0.,   -65.723114
     23,  -172.925995,           0.,  -44.3998489
     24,  -177.127197,           0.,  -22.3763695
     25,  -178.535004,           0.,           0.
     26,  -177.127197,           0.,   22.3763695
     27,  -172.925995,           0.,   44.3998489
     28,   -165.99765,           0.,    65.723114
     29,  -156.451416,           0.,   86.0098953
     30,  -144.437851,           0.,   104.940239
     31,  -130.146408,           0.,   122.215614
     32,   -113.80249,           0.,   137.563583
     33,  -95.6638336,           0.,   150.742081
     34,  -76.0165024,           0.,   161.543304
     35,  -55.1703491,           0.,   169.796875
     36,  -33.4541245,           0.,    175.37265
     37,  -11.2103052,           0.,   178.182709
     38,   11.2103052,           0.,   178.182709
     39,   33.4541245,           0.,    175.37265
     40,   55.1703491,           0.,   169.796875
     41,   76.0165024,           0.,   161.543304
     42,   95.6638336,           0.,   150.742081
     43,    113.80249,           0.,   137.563583
     44,   130.146408,           0.,   122.215614
     45,   144.437851,           0.,   104.940239
     46,   156.451416,           0.,   86.0098953
     47,    165.99765,           0.,    65.723114
     48,   172.925995,           0.,   44.3998489
     49,   177.127197,           0.,   22.3763695
     50,   178.535004,           0.,           0.
     51,   177.127197,   22.3245659,  -22.3763695
     52,   172.925995,   22.3245659,  -44.3998489
     53,    165.99765,   22.3245659,   -65.723114
     54,   156.451416,   22.3245659,  -86.0098953
     55,   144.437851,   22.3245659,  -104.940239
     56,   130.146408,   22.3245659,  -122.215622
     57,    113.80249,   22.3245659,  -137.563583
     58,   95.6638336,   22.3245659,  -150.742081
     59,   76.0165024,   22.3245659,  -161.543304
     60,   55.1703491,   22.3245659,  -169.796875
     61,   33.4541245,   22.3245659,   -175.37265
     62,   11.2103052,   22.3245659,  -178.182709
     63,  -11.2103052,   22.3245659,  -178.182709
     64,  -33.4541245,   22.3245659,   -175.37265
     65,  -55.1703491,   22.3245659,  -169.796875
     66,  -76.0165024,   22.3245659,  -161.543304
     67,  -95.6638336,   22.3245659,  -150.742081
     68,   -113.80249,   22.3245659,  -137.563583
     69,  -130.146408,   22.3245659,  -122.215622
     70,  -144.437851,   22.3245659,  -104.940239
     71,  -156.451416,   22.3245659,  -86.0098953
     72,   -165.99765,   22.3245659,   -65.723114
     73,  -172.925995,   22.3245659,  -44.3998489
     74,  -177.127197,   22.3245659,  -22.3763695
     75,  -178.535004,   22.3245659,           0.
     76,  -177.127197,   22.3245659,   22.3763695
     77,  -172.925995,   22.3245659,   44.3998489
     78,   -165.99765,   22.3245659,    65.723114
     79,  -156.451416,   22.3245659,   86.0098953
     80,  -144.437851,   22.3245659,   104.940239
     81,  -130.146408,   22.3245659,   122.215622
     82,   -113.80249,   22.3245659,   137.563583
     83,  -95.6638336,   22.3245659,   150.742081
     84,  -76.0165024,   22.3245659,   161.543304
     85,  -55.1703491,   22.3245659,   169.796875
     86,  -33.4541245,   22.3245659,    175.37265
     87,  -11.2103052,   22.3245659,   178.182709
     88,   11.2103052,   22.3245659,   178.182709
     89,   33.4541245,   22.3245659,    175.37265
     90,   55.1703491,   22.3245659,   169.796875
     91,   76.0165024,   22.3245659,   161.543304
     92,   95.6638336,   22.3245659,   150.742081
     93,    113.80249,   22.3245659,   137.563583
     94,   130.146408,   22.3245659,   122.215622
     95,   144.437851,   22.3245659,   104.940239
     96,   156.451416,   22.3245659,   86.0098953
     97,    165.99765,   22.3245659,    65.723114
     98,   172.925995,   22.3245659,   44.3998489
     99,   177.127197,   22.3245659,   22.3763695
    100,   178.535004,   22.3245659,           0.
    101,   177.127197,   44.6491318,  -22.3763695
    102,   172.925995,   44.6491318,  -44.3998489
    103,    165.99765,   44.6491318,   -65.723114
    104,   156.451416,   44.6491318,  -86.0098953
    105,   144.437851,   44.6491318,  -104.940239
    106,   130.146408,   44.6491318,  -122.215622
    107,    113.80249,   44.6491318,  -137.563583
    108,   95.6638336,   44.6491318,  -150.742081
    109,   76.0165024,   44.6491318,  -161.543304
    110,   55.1703491,   44.6491318,  -169.796875
    111,   33.4541245,   44.6491318,   -175.37265
    112,   11.2103052,   44.6491318,  -178.182709
    113,  -11.2103052,   44.6491318,  -178.182709
    114,  -33.4541245,   44.6491318,   -175.37265
    115,  -55.1703491,   44.6491318,  -169.796875
    116,  -76.0165024,   44.6491318,  -161.543304
    117,  -95.6638336,   44.6491318,  -150.742081
    118,   -113.80249,   44.6491318,  -137.563583
    119,  -130.146408,   44.6491318,  -122.215622
    120,  -144.437851,   44.6491318,  -104.940239
    121,  -156.451416,   44.6491318,  -86.0098953
    122,   -165.99765,   44.6491318,   -65.723114
    123,  -172.925995,   44.6491318,  -44.3998489
    124,  -177.127197,   44.6491318,  -22.3763695
    125,  -178.535004,   44.6491318,           0.
    126,  -177.127197,   44.6491318,   22.3763695
    127,  -172.925995,   44.6491318,   44.3998489
    128,   -165.99765,   44.6491318,    65.723114
    129,  -156.451416,   44.6491318,   86.0098953
    130,  -144.437851,   44.6491318,   104.940239
    131,  -130.146408,   44.6491318,   122.215622
    132,   -113.80249,   44.6491318,   137.563583
    133,  -95.6638336,   44.6491318,   150.742081
    134,  -76.0165024,   44.6491318,   161.543304
    135,  -55.1703491,   44.6491318,   169.796875
    136,  -33.4541245,   44.6491318,    175.37265
    137,  -11.2103052,   44.6491318,   178.182709
    138,   11.2103052,   44.6491318,   178.182709
    139,   33.4541245,   44.6491318,    175.37265
    140,   55.1703491,   44.6491318,   169.796875
    141,   76.0165024,   44.6491318,   161.543304
    142,   95.6638336,   44.6491318,   150.742081
    143,    113.80249,   44.6491318,   137.563583
    144,   130.146408,   44.6491318,   122.215622
    145,   144.437851,   44.6491318,   104.940239
    146,   156.451416,   44.6491318,   86.0098953
    147,    165.99765,   44.6491318,    65.723114
    148,   172.925995,   44.6491318,   44.3998489
    149,   177.127197,   44.6491318,   22.3763695
    150,   178.535004,   44.6491318,           0.
    151,   177.127197,   66.9737015,  -22.3763695
    152,   172.925995,   66.9737015,  -44.3998489
    153,    165.99765,   66.9737015,   -65.723114
    154,   156.451416,   66.9737015,  -86.0098953
    155,   144.437851,   66.9737015,  -104.940239
    156,   130.146408,   66.9737015,  -122.215622
    157,    113.80249,   66.9737015,  -137.563583
    158,   95.6638336,   66.9737015,  -150.742081
    159,   76.0165024,   66.9737015,  -161.543304
    160,   55.1703491,   66.9737015,  -169.796875
    161,   33.4541245,   66.9737015,   -175.37265
    162,   11.2103052,   66.9737015,  -178.182709
    163,  -11.2103052,   66.9737015,  -178.182709
    164,  -33.4541245,   66.9737015,   -175.37265
    165,  -55.1703491,   66.9737015,  -169.796875
    166,  -76.0165024,   66.9737015,  -161.543304
    167,  -95.6638336,   66.9737015,  -150.742081
    168,   -113.80249,   66.9737015,  -137.563583
    169,  -130.146408,   66.9737015,  -122.215622
    170,  -144.437851,   66.9737015,  -104.940239
    171,  -156.451416,   66.9737015,  -86.0098953
    172,   -165.99765,   66.9737015,   -65.723114
    173,  -172.925995,   66.9737015,  -44.3998489
    174,  -177.127197,   66.9737015,  -22.3763695
    175,  -178.535004,   66.9737015,           0.
    176,  -177.127197,   66.9737015,   22.3763695
    177,  -172.925995,   66.9737015,   44.3998489
    178,   -165.99765,   66.9737015,    65.723114
    179,  -156.451416,   66.9737015,   86.0098953
    180,  -144.437851,   66.9737015,   104.940239
    181,  -130.146408,   66.9737015,   122.215622
    182,   -113.80249,   66.9737015,   137.563583
    183,  -95.6638336,   66.9737015,   150.742081
    184,  -76.0165024,   66.9737015,   161.543304
    185,  -55.1703491,   66.9737015,   169.796875
    186,  -33.4541245,   66.9737015,    175.37265
    187,  -11.2103052,   66.9737015,   178.182709
    188,   11.2103052,   66.9737015,   178.182709
    189,   33.4541245,   66.9737015,    175.37265
    190,   55.1703491,   66.9737015,   169.796875
    191,   76.0165024,   66.9737015,   161.543304
    192,   95.6638336,   66.9737015,   150.742081
    193,    113.80249,   66.9737015,   137.563583
    194,   130.146408,   66.9737015,   122.215622
    195,   144.437851,   66.9737015,   104.940239
    196,   156.451416,   66.9737015,   86.0098953
    197,    165.99765,   66.9737015,    65.723114
    198,   172.925995,   66.9737015,   44.3998489
    199,   177.127197,   66.9737015,   22.3763695
    200,   178.535004,   66.9737015,           0.
    201,   177.127197,   89.2982635,  -22.3763695
    202,   172.925995,   89.2982635,  -44.3998489
    203,    165.99765,   89.2982635,   -65.723114
    204,   156.451416,   89.2982635,  -86.0098953
    205,   144.437851,   89.2982635,  -104.940239
    206,   130.146408,   89.2982635,  -122.215622
    207,    113.80249,   89.2982635,  -137.563583
    208,   95.6638336,   89.2982635,  -150.742081
    209,   76.0165024,   89.2982635,  -161.543304
    210,   55.1703491,   89.2982635,  -169.796875
    211,   33.4541245,   89.2982635,   -175.37265
    212,   11.2103052,   89.2982635,  -178.182709
    213,  -11.2103052,   89.2982635,  -178.182709
    214,  -33.4541245,   89.2982635,   -175.37265
    215,  -55.1703491,   89.2982635,  -169.796875
    216,  -76.0165024,   89.2982635,  -161.543304
    217,  -95.6638336,   89.2982635,  -150.742081
    218,   -113.80249,   89.2982635,  -137.563583
    219,  -130.146408,   89.2982635,  -122.215622
    220,  -144.437851,   89.2982635,  -104.940239
    221,  -156.451416,   89.2982635,  -86.0098953
    222,   -165.99765,   89.2982635,   -65.723114
    223,  -172.925995,   89.2982635,  -44.3998489
    224,  -177.127197,   89.2982635,  -22.3763695
    225,  -178.535004,   89.2982635,           0.
    226,  -177.127197,   89.2982635,   22.3763695
    227,  -172.925995,   89.2982635,   44.3998489
    228,   -165.99765,   89.2982635,    65.723114
    229,  -156.451416,   89.2982635,   86.0098953
    230,  -144.437851,   89.2982635,   104.940239
    231,  -130.146408,   89.2982635,   122.215622
    232,   -113.80249,   89.2982635,   137.563583
    233,  -95.6638336,   89.2982635,   150.742081
    234,  -76.0165024,   89.2982635,   161.543304
    235,  -55.1703491,   89.2982635,   169.796875
    236,  -33.4541245,   89.2982635,    175.37265
    237,  -11.2103052,   89.2982635,   178.182709
    238,   11.2103052,   89.2982635,   178.182709
    239,   33.4541245,   89.2982635,    175.37265
    240,   55.1703491,   89.2982635,   169.796875
    241,   76.0165024,   89.2982635,   161.543304
    242,   95.6638336,   89.2982635,   150.742081
    243,    113.80249,   89.2982635,   137.563583
    244,   130.146408,   89.2982635,   122.215622
    245,   144.437851,   89.2982635,   104.940239
    246,   156.451416,   89.2982635,   86.0098953
    247,    165.99765,   89.2982635,    65.723114
    248,   172.925995,   89.2982635,   44.3998489
    249,   177.127197,   89.2982635,   22.3763695
    250,   178.535004,   89.2982635,           0.
    251,   177.127197,   111.622833,  -22.3763695
    252,   172.925995,   111.622833,  -44.3998489
    253,    165.99765,   111.622833,   -65.723114
    254,   156.451416,   111.622833,  -86.0098953
    255,   144.437851,   111.622833,  -104.940239
    256,   130.146408,   111.622833,  -122.215622
    257,    113.80249,   111.622833,  -137.563583
    258,   95.6638336,   111.622833,  -150.742081
    259,   76.0165024,   111.622833,  -161.543304
    260,   55.1703491,   111.622833,  -169.796875
    261,   33.4541245,   111.622833,   -175.37265
    262,   11.2103052,   111.622833,  -178.182709
    263,  -11.2103052,   111.622833,  -178.182709
    264,  -33.4541245,   111.622833,   -175.37265
    265,  -55.1703491,   111.622833,  -169.796875
    266,  -76.0165024,   111.622833,  -161.543304
    267,  -95.6638336,   111.622833,  -150.742081
    268,   -113.80249,   111.622833,  -137.563583
    269,  -130.146408,   111.622833,  -122.215622
    270,  -144.437851,   111.622833,  -104.940239
    271,  -156.451416,   111.622833,  -86.0098953
    272,   -165.99765,   111.622833,   -65.723114
    273,  -172.925995,   111.622833,  -44.3998489
    274,  -177.127197,   111.622833,  -22.3763695
    275,  -178.535004,   111.622833,           0.
    276,  -177.127197,   111.622833,   22.3763695
    277,  -172.925995,   111.622833,   44.3998489
    278,   -165.99765,   111.622833,    65.723114
    279,  -156.451416,   111.622833,   86.0098953
    280,  -144.437851,   111.622833,   104.940239
    281,  -130.146408,   111.622833,   122.215622
    282,   -113.80249,   111.622833,   137.563583
    283,  -95.6638336,   111.622833,   150.742081
    284,  -76.0165024,   111.622833,   161.543304
    285,  -55.1703491,   111.622833,   169.796875
    286,  -33.4541245,   111.622833,    175.37265
    287,  -11.2103052,   111.622833,   178.182709
    288,   11.2103052,   111.622833,   178.182709
    289,   33.4541245,   111.622833,    175.37265
    290,   55.1703491,   111.622833,   169.796875
    291,   76.0165024,   111.622833,   161.543304
    292,   95.6638336,   111.622833,   150.742081
    293,    113.80249,   111.622833,   137.563583
    294,   130.146408,   111.622833,   122.215622
    295,   144.437851,   111.622833,   104.940239
    296,   156.451416,   111.622833,   86.0098953
    297,    165.99765,   111.622833,    65.723114
    298,   172.925995,   111.622833,   44.3998489
    299,   177.127197,   111.622833,   22.3763695
    300,   178.535004,   111.622833,           0.
    301,   177.127197,   133.947403,  -22.3763695
    302,   172.925995,   133.947403,  -44.3998489
    303,    165.99765,   133.947403,   -65.723114
    304,   156.451416,   133.947403,  -86.0098953
    305,   144.437851,   133.947403,  -104.940239
    306,   130.146408,   133.947403,  -122.215622
    307,    113.80249,   133.947403,  -137.563583
    308,   95.6638336,   133.947403,  -150.742081
    309,   76.0165024,   133.947403,  -161.543304
    310,   55.1703491,   133.947403,  -169.796875
    311,   33.4541245,   133.947403,   -175.37265
    312,   11.2103052,   133.947403,  -178.182709
    313,  -11.2103052,   133.947403,  -178.182709
    314,  -33.4541245,   133.947403,   -175.37265
    315,  -55.1703491,   133.947403,  -169.796875
    316,  -76.0165024,   133.947403,  -161.543304
    317,  -95.6638336,   133.947403,  -150.742081
    318,   -113.80249,   133.947403,  -137.563583
    319,  -130.146408,   133.947403,  -122.215622
    320,  -144.437851,   133.947403,  -104.940239
    321,  -156.451416,   133.947403,  -86.0098953
    322,   -165.99765,   133.947403,   -65.723114
    323,  -172.925995,   133.947403,  -44.3998489
    324,  -177.127197,   133.947403,  -22.3763695
    325,  -178.535004,   133.947403,           0.
    326,  -177.127197,   133.947403,   22.3763695
    327,  -172.925995,   133.947403,   44.3998489
    328,   -165.99765,   133.947403,    65.723114
    329,  -156.451416,   133.947403,   86.0098953
    330,  -144.437851,   133.947403,   104.940239
    331,  -130.146408,   133.947403,   122.215622
    332,   -113.80249,   133.947403,   137.563583
    333,  -95.6638336,   133.947403,   150.742081
    334,  -76.0165024,   133.947403,   161.543304
    335,  -55.1703491,   133.947403,   169.796875
    336,  -33.4541245,   133.947403,    175.37265
    337,  -11.2103052,   133.947403,   178.182709
    338,   11.2103052,   133.947403,   178.182709
    339,   33.4541245,   133.947403,    175.37265
    340,   55.1703491,   133.947403,   169.796875
    341,   76.0165024,   133.947403,   161.543304
    342,   95.6638336,   133.947403,   150.742081
    343,    113.80249,   133.947403,   137.563583
    344,   130.146408,   133.947403,   122.215622
    345,   144.437851,   133.947403,   104.940239
    346,   156.451416,   133.947403,   86.0098953
    347,    165.99765,   133.947403,    65.723114
    348,   172.925995,   133.947403,   44.3998489
    349,   177.127197,   133.947403,   22.3763695
    350,   178.535004,   133.947403,           0.
    351,   177.127197,   156.271973,  -22.3763695
    352,   172.925995,   156.271973,  -44.3998489
    353,    165.99765,   156.271973,   -65.723114
    354,   156.451416,   156.271973,  -86.0098953
    355,   144.437851,   156.271973,  -104.940239
    356,   130.146408,   156.271973,  -122.215622
    357,    113.80249,   156.271973,  -137.563583
    358,   95.6638336,   156.271973,  -150.742081
    359,   76.0165024,   156.271973,  -161.543304
    360,   55.1703491,   156.271973,  -169.796875
    361,   33.4541245,   156.271973,   -175.37265
    362,   11.2103052,   156.271973,  -178.182709
    363,  -11.2103052,   156.271973,  -178.182709
    364,  -33.4541245,   156.271973,   -175.37265
    365,  -55.1703491,   156.271973,  -169.796875
    366,  -76.0165024,   156.271973,  -161.543304
    367,  -95.6638336,   156.271973,  -150.742081
    368,   -113.80249,   156.271973,  -137.563583
    369,  -130.146408,   156.271973,  -122.215622
    370,  -144.437851,   156.271973,  -104.940239
    371,  -156.451416,   156.271973,  -86.0098953
    372,   -165.99765,   156.271973,   -65.723114
    373,  -172.925995,   156.271973,  -44.3998489
    374,  -177.127197,   156.271973,  -22.3763695
    375,  -178.535004,   156.271973,           0.
    376,  -177.127197,   156.271973,   22.3763695
    377,  -172.925995,   156.271973,   44.3998489
    378,   -165.99765,   156.271973,    65.723114
    379,  -156.451416,   156.271973,   86.0098953
    380,  -144.437851,   156.271973,   104.940239
    381,  -130.146408,   156.271973,   122.215622
    382,   -113.80249,   156.271973,   137.563583
    383,  -95.6638336,   156.271973,   150.742081
    384,  -76.0165024,   156.271973,   161.543304
    385,  -55.1703491,   156.271973,   169.796875
    386,  -33.4541245,   156.271973,    175.37265
    387,  -11.2103052,   156.271973,   178.182709
    388,   11.2103052,   156.271973,   178.182709
    389,   33.4541245,   156.271973,    175.37265
    390,   55.1703491,   156.271973,   169.796875
    391,   76.0165024,   156.271973,   161.543304
    392,   95.6638336,   156.271973,   150.742081
    393,    113.80249,   156.271973,   137.563583
    394,   130.146408,   156.271973,   122.215622
    395,   144.437851,   156.271973,   104.940239
    396,   156.451416,   156.271973,   86.0098953
    397,    165.99765,   156.271973,    65.723114
    398,   172.925995,   156.271973,   44.3998489
    399,   177.127197,   156.271973,   22.3763695
    400,   178.535004,   156.271973,           0.
    401,   177.127197,   178.596527,  -22.3763695
    402,   172.925995,   178.596527,  -44.3998489
    403,    165.99765,   178.596527,   -65.723114
    404,   156.451416,   178.596527,  -86.0098953
    405,   144.437851,   178.596527,  -104.940239
    406,   130.146408,   178.596527,  -122.215622
    407,    113.80249,   178.596527,  -137.563583
    408,   95.6638336,   178.596527,  -150.742081
    409,   76.0165024,   178.596527,  -161.543304
    410,   55.1703491,   178.596527,  -169.796875
    411,   33.4541245,   178.596527,   -175.37265
    412,   11.2103052,   178.596527,  -178.182709
    413,  -11.2103052,   178.596527,  -178.182709
    414,  -33.4541245,   178.596527,   -175.37265
    415,  -55.1703491,   178.596527,  -169.796875
    416,  -76.0165024,   178.596527,  -161.543304
    417,  -95.6638336,   178.596527,  -150.742081
    418,   -113.80249,   178.596527,  -137.563583
    419,  -130.146408,   178.596527,  -122.215622
    420,  -144.437851,   178.596527,  -104.940239
    421,  -156.451416,   178.596527,  -86.0098953
    422,   -165.99765,   178.596527,   -65.723114
    423,  -172.925995,   178.596527,  -44.3998489
    424,  -177.127197,   178.596527,  -22.3763695
    425,  -178.535004,   178.596527,           0.
    426,  -177.127197,   178.596527,   22.3763695
    427,  -172.925995,   178.596527,   44.3998489
    428,   -165.99765,   178.596527,    65.723114
    429,  -156.451416,   178.596527,   86.0098953
    430,  -144.437851,   178.596527,   104.940239
    431,  -130.146408,   178.596527,   122.215622
    432,   -113.80249,   178.596527,   137.563583
    433,  -95.6638336,   178.596527,   150.742081
    434,  -76.0165024,   178.596527,   161.543304
    435,  -55.1703491,   178.596527,   169.796875
    436,  -33.4541245,   178.596527,    175.37265
    437,  -11.2103052,   178.596527,   178.182709
    438,   11.2103052,   178.596527,   178.182709
    439,   33.4541245,   178.596527,    175.37265
    440,   55.1703491,   178.596527,   169.796875
    441,   76.0165024,   178.596527,   161.543304
    442,   95.6638336,   178.596527,   150.742081
    443,    113.80249,   178.596527,   137.563583
    444,   130.146408,   178.596527,   122.215622
    445,   144.437851,   178.596527,   104.940239
    446,   156.451416,   178.596527,   86.0098953
    447,    165.99765,   178.596527,    65.723114
    448,   172.925995,   178.596527,   44.3998489
    449,   177.127197,   178.596527,   22.3763695
    450,   178.535004,   178.596527,           0.
    451,   177.127197,   200.921097,  -22.3763695
    452,   172.925995,   200.921097,  -44.3998489
    453,    165.99765,   200.921097,   -65.723114
    454,   156.451416,   200.921097,  -86.0098953
    455,   144.437851,   200.921097,  -104.940239
    456,   130.146408,   200.921097,  -122.215622
    457,    113.80249,   200.921097,  -137.563583
    458,   95.6638336,   200.921097,  -150.742081
    459,   76.0165024,   200.921097,  -161.543304
    460,   55.1703491,   200.921097,  -169.796875
    461,   33.4541245,   200.921097,   -175.37265
    462,   11.2103052,   200.921097,  -178.182709
    463,  -11.2103052,   200.921097,  -178.182709
    464,  -33.4541245,   200.921097,   -175.37265
    465,  -55.1703491,   200.921097,  -169.796875
    466,  -76.0165024,   200.921097,  -161.543304
    467,  -95.6638336,   200.921097,  -150.742081
    468,   -113.80249,   200.921097,  -137.563583
    469,  -130.146408,   200.921097,  -122.215622
    470,  -144.437851,   200.921097,  -104.940239
    471,  -156.451416,   200.921097,  -86.0098953
    472,   -165.99765,   200.921097,   -65.723114
    473,  -172.925995,   200.921097,  -44.3998489
    474,  -177.127197,   200.921097,  -22.3763695
    475,  -178.535004,   200.921097,           0.
    476,  -177.127197,   200.921097,   22.3763695
    477,  -172.925995,   200.921097,   44.3998489
    478,   -165.99765,   200.921097,    65.723114
    479,  -156.451416,   200.921097,   86.0098953
    480,  -144.437851,   200.921097,   104.940239
    481,  -130.146408,   200.921097,   122.215622
    482,   -113.80249,   200.921097,   137.563583
    483,  -95.6638336,   200.921097,   150.742081
    484,  -76.0165024,   200.921097,   161.543304
    485,  -55.1703491,   200.921097,   169.796875
    486,  -33.4541245,   200.921097,    175.37265
    487,  -11.2103052,   200.921097,   178.182709
    488,   11.2103052,   200.921097,   178.182709
    489,   33.4541245,   200.921097,    175.37265
    490,   55.1703491,   200.921097,   169.796875
    491,   76.0165024,   200.921097,   161.543304
    492,   95.6638336,   200.921097,   150.742081
    493,    113.80249,   200.921097,   137.563583
    494,   130.146408,   200.921097,   122.215622
    495,   144.437851,   200.921097,   104.940239
    496,   156.451416,   200.921097,   86.0098953
    497,    165.99765,   200.921097,    65.723114
    498,   172.925995,   200.921097,   44.3998489
    499,   177.127197,   200.921097,   22.3763695
    500,   178.535004,   200.921097,           0.
    501,   177.127197,   223.245667,  -22.3763695
    502,   172.925995,   223.245667,  -44.3998489
    503,    165.99765,   223.245667,   -65.723114
    504,   156.451416,   223.245667,  -86.0098953
    505,   144.437851,   223.245667,  -104.940239
    506,   130.146408,   223.245667,  -122.215622
    507,    113.80249,   223.245667,  -137.563583
    508,   95.6638336,   223.245667,  -150.742081
    509,   76.0165024,   223.245667,  -161.543304
    510,   55.1703491,   223.245667,  -169.796875
    511,   33.4541245,   223.245667,   -175.37265
    512,   11.2103052,   223.245667,  -178.182709
    513,  -11.2103052,   223.245667,  -178.182709
    514,  -33.4541245,   223.245667,   -175.37265
    515,  -55.1703491,   223.245667,  -169.796875
    516,  -76.0165024,   223.245667,  -161.543304
    517,  -95.6638336,   223.245667,  -150.742081
    518,   -113.80249,   223.245667,  -137.563583
    519,  -130.146408,   223.245667,  -122.215622
    520,  -144.437851,   223.245667,  -104.940239
    521,  -156.451416,   223.245667,  -86.0098953
    522,   -165.99765,   223.245667,   -65.723114
    523,  -172.925995,   223.245667,  -44.3998489
    524,  -177.127197,   223.245667,  -22.3763695
    525,  -178.535004,   223.245667,           0.
    526,  -177.127197,   223.245667,   22.3763695
    527,  -172.925995,   223.245667,   44.3998489
    528,   -165.99765,   223.245667,    65.723114
    529,  -156.451416,   223.245667,   86.0098953
    530,  -144.437851,   223.245667,   104.940239
    531,  -130.146408,   223.245667,   122.215622
    532,   -113.80249,   223.245667,   137.563583
    533,  -95.6638336,   223.245667,   150.742081
    534,  -76.0165024,   223.245667,   161.543304
    535,  -55.1703491,   223.245667,   169.796875
    536,  -33.4541245,   223.245667,    175.37265
    537,  -11.2103052,   223.245667,   178.182709
    538,   11.2103052,   223.245667,   178.182709
    539,   33.4541245,   223.245667,    175.37265
    540,   55.1703491,   223.245667,   169.796875
    541,   76.0165024,   223.245667,   161.543304
    542,   95.6638336,   223.245667,   150.742081
    543,    113.80249,   223.245667,   137.563583
    544,   130.146408,   223.245667,   122.215622
    545,   144.437851,   223.245667,   104.940239
    546,   156.451416,   223.245667,   86.0098953
    547,    165.99765,   223.245667,    65.723114
    548,   172.925995,   223.245667,   44.3998489
    549,   177.127197,   223.245667,   22.3763695
    550,   178.535004,   223.245667,           0.
    551,   177.127197,   245.570236,  -22.3763695
    552,   172.925995,   245.570236,  -44.3998489
    553,    165.99765,   245.570236,   -65.723114
    554,   156.451416,   245.570236,  -86.0098953
    555,   144.437851,   245.570236,  -104.940239
    556,   130.146408,   245.570236,  -122.215622
    557,    113.80249,   245.570236,  -137.563583
    558,   95.6638336,   245.570236,  -150.742081
    559,   76.0165024,   245.570236,  -161.543304
    560,   55.1703491,   245.570236,  -169.796875
    561,   33.4541245,   245.570236,   -175.37265
    562,   11.2103052,   245.570236,  -178.182709
    563,  -11.2103052,   245.570236,  -178.182709
    564,  -33.4541245,   245.570236,   -175.37265
    565,  -55.1703491,   245.570236,  -169.796875
    566,  -76.0165024,   245.570236,  -161.543304
    567,  -95.6638336,   245.570236,  -150.742081
    568,   -113.80249,   245.570236,  -137.563583
    569,  -130.146408,   245.570236,  -122.215622
    570,  -144.437851,   245.570236,  -104.940239
    571,  -156.451416,   245.570236,  -86.0098953
    572,   -165.99765,   245.570236,   -65.723114
    573,  -172.925995,   245.570236,  -44.3998489
    574,  -177.127197,   245.570236,  -22.3763695
    575,  -178.535004,   245.570236,           0.
    576,  -177.127197,   245.570236,   22.3763695
    577,  -172.925995,   245.570236,   44.3998489
    578,   -165.99765,   245.570236,    65.723114
    579,  -156.451416,   245.570236,   86.0098953
    580,  -144.437851,   245.570236,   104.940239
    581,  -130.146408,   245.570236,   122.215622
    582,   -113.80249,   245.570236,   137.563583
    583,  -95.6638336,   245.570236,   150.742081
    584,  -76.0165024,   245.570236,   161.543304
    585,  -55.1703491,   245.570236,   169.796875
    586,  -33.4541245,   245.570236,    175.37265
    587,  -11.2103052,   245.570236,   178.182709
    588,   11.2103052,   245.570236,   178.182709
    589,   33.4541245,   245.570236,    175.37265
    590,   55.1703491,   245.570236,   169.796875
    591,   76.0165024,   245.570236,   161.543304
    592,   95.6638336,   245.570236,   150.742081
    593,    113.80249,   245.570236,   137.563583
    594,   130.146408,   245.570236,   122.215622
    595,   144.437851,   245.570236,   104.940239
    596,   156.451416,   245.570236,   86.0098953
    597,    165.99765,   245.570236,    65.723114
    598,   172.925995,   245.570236,   44.3998489
    599,   177.127197,   245.570236,   22.3763695
    600,   178.535004,   245.570236,           0.
    601,   177.127197,   267.894806,  -22.3763695
    602,   172.925995,   267.894806,  -44.3998489
    603,    165.99765,   267.894806,   -65.723114
    604,   156.451416,   267.894806,  -86.0098953
    605,   144.437851,   267.894806,  -104.940239
    606,   130.146408,   267.894806,  -122.215622
    607,    113.80249,   267.894806,  -137.563583
    608,   95.6638336,   267.894806,  -150.742081
    609,   76.0165024,   267.894806,  -161.543304
    610,   55.1703491,   267.894806,  -169.796875
    611,   33.4541245,   267.894806,   -175.37265
    612,   11.2103052,   267.894806,  -178.182709
    613,  -11.2103052,   267.894806,  -178.182709
    614,  -33.4541245,   267.894806,   -175.37265
    615,  -55.1703491,   267.894806,  -169.796875
    616,  -76.0165024,   267.894806,  -161.543304
    617,  -95.6638336,   267.894806,  -150.742081
    618,   -113.80249,   267.894806,  -137.563583
    619,  -130.146408,   267.894806,  -122.215622
    620,  -144.437851,   267.894806,  -104.940239
    621,  -156.451416,   267.894806,  -86.0098953
    622,   -165.99765,   267.894806,   -65.723114
    623,  -172.925995,   267.894806,  -44.3998489
    624,  -177.127197,   267.894806,  -22.3763695
    625,  -178.535004,   267.894806,           0.
    626,  -177.127197,   267.894806,   22.3763695
    627,  -172.925995,   267.894806,   44.3998489
    628,   -165.99765,   267.894806,    65.723114
    629,  -156.451416,   267.894806,   86.0098953
    630,  -144.437851,   267.894806,   104.940239
    631,  -130.146408,   267.894806,   122.215622
    632,   -113.80249,   267.894806,   137.563583
    633,  -95.6638336,   267.894806,   150.742081
    634,  -76.0165024,   267.894806,   161.543304
    635,  -55.1703491,   267.894806,   169.796875
    636,  -33.4541245,   267.894806,    175.37265
    637,  -11.2103052,   267.894806,   178.182709
    638,   11.2103052,   267.894806,   178.182709
    639,   33.4541245,   267.894806,    175.37265
    640,   55.1703491,   267.894806,   169.796875
    641,   76.0165024,   267.894806,   161.543304
    642,   95.6638336,   267.894806,   150.742081
    643,    113.80249,   267.894806,   137.563583
    644,   130.146408,   267.894806,   122.215622
    645,   144.437851,   267.894806,   104.940239
    646,   156.451416,   267.894806,   86.0098953
    647,    165.99765,   267.894806,    65.723114
    648,   172.925995,   267.894806,   44.3998489
    649,   177.127197,   267.894806,   22.3763695
    650,   178.535004,   267.894806,           0.
    651,   177.127197,    290.21936,  -22.3763695
    652,   172.925995,    290.21936,  -44.3998489
    653,    165.99765,    290.21936,   -65.723114
    654,   156.451416,    290.21936,  -86.0098953
    655,   144.437851,    290.21936,  -104.940239
    656,   130.146408,    290.21936,  -122.215622
    657,    113.80249,    290.21936,  -137.563583
    658,   95.6638336,    290.21936,  -150.742081
    659,   76.0165024,    290.21936,  -161.543304
    660,   55.1703491,    290.21936,  -169.796875
    661,   33.4541245,    290.21936,   -175.37265
    662,   11.2103052,    290.21936,  -178.182709
    663,  -11.2103052,    290.21936,  -178.182709
    664,  -33.4541245,    290.21936,   -175.37265
    665,  -55.1703491,    290.21936,  -169.796875
    666,  -76.0165024,    290.21936,  -161.543304
    667,  -95.6638336,    290.21936,  -150.742081
    668,   -113.80249,    290.21936,  -137.563583
    669,  -130.146408,    290.21936,  -122.215622
    670,  -144.437851,    290.21936,  -104.940239
    671,  -156.451416,    290.21936,  -86.0098953
    672,   -165.99765,    290.21936,   -65.723114
    673,  -172.925995,    290.21936,  -44.3998489
    674,  -177.127197,    290.21936,  -22.3763695
    675,  -178.535004,    290.21936,           0.
    676,  -177.127197,    290.21936,   22.3763695
    677,  -172.925995,    290.21936,   44.3998489
    678,   -165.99765,    290.21936,    65.723114
    679,  -156.451416,    290.21936,   86.0098953
    680,  -144.437851,    290.21936,   104.940239
    681,  -130.146408,    290.21936,   122.215622
    682,   -113.80249,    290.21936,   137.563583
    683,  -95.6638336,    290.21936,   150.742081
    684,  -76.0165024,    290.21936,   161.543304
    685,  -55.1703491,    290.21936,   169.796875
    686,  -33.4541245,    290.21936,    175.37265
    687,  -11.2103052,    290.21936,   178.182709
    688,   11.2103052,    290.21936,   178.182709
    689,   33.4541245,    290.21936,    175.37265
    690,   55.1703491,    290.21936,   169.796875
    691,   76.0165024,    290.21936,   161.543304
    692,   95.6638336,    290.21936,   150.742081
    693,    113.80249,    290.21936,   137.563583
    694,   130.146408,    290.21936,   122.215622
    695,   144.437851,    290.21936,   104.940239
    696,   156.451416,    290.21936,   86.0098953
    697,    165.99765,    290.21936,    65.723114
    698,   172.925995,    290.21936,   44.3998489
    699,   177.127197,    290.21936,   22.3763695
    700,   178.535004,    290.21936,           0.
    701,   177.127197,   312.543945,  -22.3763695
    702,   172.925995,   312.543945,  -44.3998489
    703,    165.99765,   312.543945,   -65.723114
    704,   156.451416,   312.543945,  -86.0098953
    705,   144.437851,   312.543945,  -104.940239
    706,   130.146408,   312.543945,  -122.215622
    707,    113.80249,   312.543945,  -137.563583
    708,   95.6638336,   312.543945,  -150.742081
    709,   76.0165024,   312.543945,  -161.543304
    710,   55.1703491,   312.543945,  -169.796875
    711,   33.4541245,   312.543945,   -175.37265
    712,   11.2103052,   312.543945,  -178.182709
    713,  -11.2103052,   312.543945,  -178.182709
    714,  -33.4541245,   312.543945,   -175.37265
    715,  -55.1703491,   312.543945,  -169.796875
    716,  -76.0165024,   312.543945,  -161.543304
    717,  -95.6638336,   312.543945,  -150.742081
    718,   -113.80249,   312.543945,  -137.563583
    719,  -130.146408,   312.543945,  -122.215622
    720,  -144.437851,   312.543945,  -104.940239
    721,  -156.451416,   312.543945,  -86.0098953
    722,   -165.99765,   312.543945,   -65.723114
    723,  -172.925995,   312.543945,  -44.3998489
    724,  -177.127197,   312.543945,  -22.3763695
    725,  -178.535004,   312.543945,           0.
    726,  -177.127197,   312.543945,   22.3763695
    727,  -172.925995,   312.543945,   44.3998489
    728,   -165.99765,   312.543945,    65.723114
    729,  -156.451416,   312.543945,   86.0098953
    730,  -144.437851,   312.543945,   104.940239
    731,  -130.146408,   312.543945,   122.215622
    732,   -113.80249,   312.543945,   137.563583
    733,  -95.6638336,   312.543945,   150.742081
    734,  -76.0165024,   312.543945,   161.543304
    735,  -55.1703491,   312.543945,   169.796875
    736,  -33.4541245,   312.543945,    175.37265
    737,  -11.2103052,   312.543945,   178.182709
    738,   11.2103052,   312.543945,   178.182709
    739,   33.4541245,   312.543945,    175.37265
    740,   55.1703491,   312.543945,   169.796875
    741,   76.0165024,   312.543945,   161.543304
    742,   95.6638336,   312.543945,   150.742081
    743,    113.80249,   312.543945,   137.563583
    744,   130.146408,   312.543945,   122.215622
    745,   144.437851,   312.543945,   104.940239
    746,   156.451416,   312.543945,   86.0098953
    747,    165.99765,   312.543945,    65.723114
    748,   172.925995,   312.543945,   44.3998489
    749,   177.127197,   312.543945,   22.3763695
    750,   178.535004,   312.543945,           0.
    751,   177.127197,     334.8685,  -22.3763695
    752,   172.925995,     334.8685,  -44.3998489
    753,    165.99765,     334.8685,   -65.723114
    754,   156.451416,     334.8685,  -86.0098953
    755,   144.437851,     334.8685,  -104.940239
    756,   130.146408,     334.8685,  -122.215622
    757,    113.80249,     334.8685,  -137.563583
    758,   95.6638336,     334.8685,  -150.742081
    759,   76.0165024,     334.8685,  -161.543304
    760,   55.1703491,     334.8685,  -169.796875
    761,   33.4541245,     334.8685,   -175.37265
    762,   11.2103052,     334.8685,  -178.182709
    763,  -11.2103052,     334.8685,  -178.182709
    764,  -33.4541245,     334.8685,   -175.37265
    765,  -55.1703491,     334.8685,  -169.796875
    766,  -76.0165024,     334.8685,  -161.543304
    767,  -95.6638336,     334.8685,  -150.742081
    768,   -113.80249,     334.8685,  -137.563583
    769,  -130.146408,     334.8685,  -122.215622
    770,  -144.437851,     334.8685,  -104.940239
    771,  -156.451416,     334.8685,  -86.0098953
    772,   -165.99765,     334.8685,   -65.723114
    773,  -172.925995,     334.8685,  -44.3998489
    774,  -177.127197,     334.8685,  -22.3763695
    775,  -178.535004,     334.8685,           0.
    776,  -177.127197,     334.8685,   22.3763695
    777,  -172.925995,     334.8685,   44.3998489
    778,   -165.99765,     334.8685,    65.723114
    779,  -156.451416,     334.8685,   86.0098953
    780,  -144.437851,     334.8685,   104.940239
    781,  -130.146408,     334.8685,   122.215622
    782,   -113.80249,     334.8685,   137.563583
    783,  -95.6638336,     334.8685,   150.742081
    784,  -76.0165024,     334.8685,   161.543304
    785,  -55.1703491,     334.8685,   169.796875
    786,  -33.4541245,     334.8685,    175.37265
    787,  -11.2103052,     334.8685,   178.182709
    788,   11.2103052,     334.8685,   178.182709
    789,   33.4541245,     334.8685,    175.37265
    790,   55.1703491,     334.8685,   169.796875
    791,   76.0165024,     334.8685,   161.543304
    792,   95.6638336,     334.8685,   150.742081
    793,    113.80249,     334.8685,   137.563583
    794,   130.146408,     334.8685,   122.215622
    795,   144.437851,     334.8685,   104.940239
    796,   156.451416,     334.8685,   86.0098953
    797,    165.99765,     334.8685,    65.723114
    798,   172.925995,     334.8685,   44.3998489
    799,   177.127197,     334.8685,   22.3763695
    800,   178.535004,     334.8685,           0.
    801,   177.127197,   357.193054,  -22.3763695
    802,   172.925995,   357.193054,  -44.3998489
    803,    165.99765,   357.193054,   -65.723114
    804,   156.451416,   357.193054,  -86.0098953
    805,   144.437851,   357.193054,  -104.940239
    806,   130.146408,   357.193054,  -122.215622
    807,    113.80249,   357.193054,  -137.563583
    808,   95.6638336,   357.193054,  -150.742081
    809,   76.0165024,   357.193054,  -161.543304
    810,   55.1703491,   357.193054,  -169.796875
    811,   33.4541245,   357.193054,   -175.37265
    812,   11.2103052,   357.193054,  -178.182709
    813,  -11.2103052,   357.193054,  -178.182709
    814,  -33.4541245,   357.193054,   -175.37265
    815,  -55.1703491,   357.193054,  -169.796875
    816,  -76.0165024,   357.193054,  -161.543304
    817,  -95.6638336,   357.193054,  -150.742081
    818,   -113.80249,   357.193054,  -137.563583
    819,  -130.146408,   357.193054,  -122.215622
    820,  -144.437851,   357.193054,  -104.940239
    821,  -156.451416,   357.193054,  -86.0098953
    822,   -165.99765,   357.193054,   -65.723114
    823,  -172.925995,   357.193054,  -44.3998489
    824,  -177.127197,   357.193054,  -22.3763695
    825,  -178.535004,   357.193054,           0.
    826,  -177.127197,   357.193054,   22.3763695
    827,  -172.925995,   357.193054,   44.3998489
    828,   -165.99765,   357.193054,    65.723114
    829,  -156.451416,   357.193054,   86.0098953
    830,  -144.437851,   357.193054,   104.940239
    831,  -130.146408,   357.193054,   122.215622
    832,   -113.80249,   357.193054,   137.563583
    833,  -95.6638336,   357.193054,   150.742081
    834,  -76.0165024,   357.193054,   161.543304
    835,  -55.1703491,   357.193054,   169.796875
    836,  -33.4541245,   357.193054,    175.37265
    837,  -11.2103052,   357.193054,   178.182709
    838,   11.2103052,   357.193054,   178.182709
    839,   33.4541245,   357.193054,    175.37265
    840,   55.1703491,   357.193054,   169.796875
    841,   76.0165024,   357.193054,   161.543304
    842,   95.6638336,   357.193054,   150.742081
    843,    113.80249,   357.193054,   137.563583
    844,   130.146408,   357.193054,   122.215622
    845,   144.437851,   357.193054,   104.940239
    846,   156.451416,   357.193054,   86.0098953
    847,    165.99765,   357.193054,    65.723114
    848,   172.925995,   357.193054,   44.3998489
    849,   177.127197,   357.193054,   22.3763695
    850,   178.535004,   357.193054,           0.
    851,   177.127197,   379.517639,  -22.3763695
    852,   172.925995,   379.517639,  -44.3998489
    853,    165.99765,   379.517639,   -65.723114
    854,   156.451416,   379.517639,  -86.0098953
    855,   144.437851,   379.517639,  -104.940239
    856,   130.146408,   379.517639,  -122.215622
    857,    113.80249,   379.517639,  -137.563583
    858,   95.6638336,   379.517639,  -150.742081
    859,   76.0165024,   379.517639,  -161.543304
    860,   55.1703491,   379.517639,  -169.796875
    861,   33.4541245,   379.517639,   -175.37265
    862,   11.2103052,   379.517639,  -178.182709
    863,  -11.2103052,   379.517639,  -178.182709
    864,  -33.4541245,   379.517639,   -175.37265
    865,  -55.1703491,   379.517639,  -169.796875
    866,  -76.0165024,   379.517639,  -161.543304
    867,  -95.6638336,   379.517639,  -150.742081
    868,   -113.80249,   379.517639,  -137.563583
    869,  -130.146408,   379.517639,  -122.215622
    870,  -144.437851,   379.517639,  -104.940239
    871,  -156.451416,   379.517639,  -86.0098953
    872,   -165.99765,   379.517639,   -65.723114
    873,  -172.925995,   379.517639,  -44.3998489
    874,  -177.127197,   379.517639,  -22.3763695
    875,  -178.535004,   379.517639,           0.
    876,  -177.127197,   379.517639,   22.3763695
    877,  -172.925995,   379.517639,   44.3998489
    878,   -165.99765,   379.517639,    65.723114
    879,  -156.451416,   379.517639,   86.0098953
    880,  -144.437851,   379.517639,   104.940239
    881,  -130.146408,   379.517639,   122.215622
    882,   -113.80249,   379.517639,   137.563583
    883,  -95.6638336,   379.517639,   150.742081
    884,  -76.0165024,   379.517639,   161.543304
    885,  -55.1703491,   379.517639,   169.796875
    886,  -33.4541245,   379.517639,    175.37265
    887,  -11.2103052,   379.517639,   178.182709
    888,   11.2103052,   379.517639,   178.182709
    889,   33.4541245,   379.517639,    175.37265
    890,   55.1703491,   379.517639,   169.796875
    891,   76.0165024,   379.517639,   161.543304
    892,   95.6638336,   379.517639,   150.742081
    893,    113.80249,   379.517639,   137.563583
    894,   130.146408,   379.517639,   122.215622
    895,   144.437851,   379.517639,   104.940239
    896,   156.451416,   379.517639,   86.0098953
    897,    165.99765,   379.517639,    65.723114
    898,   172.925995,   379.517639,   44.3998489
    899,   177.127197,   379.517639,   22.3763695
    900,   178.535004,   379.517639,           0.
    901,   177.127197,   401.842194,  -22.3763695
    902,   172.925995,   401.842194,  -44.3998489
    903,    165.99765,   401.842194,   -65.723114
    904,   156.451416,   401.842194,  -86.0098953
    905,   144.437851,   401.842194,  -104.940239
    906,   130.146408,   401.842194,  -122.215622
    907,    113.80249,   401.842194,  -137.563583
    908,   95.6638336,   401.842194,  -150.742081
    909,   76.0165024,   401.842194,  -161.543304
    910,   55.1703491,   401.842194,  -169.796875
    911,   33.4541245,   401.842194,   -175.37265
    912,   11.2103052,   401.842194,  -178.182709
    913,  -11.2103052,   401.842194,  -178.182709
    914,  -33.4541245,   401.842194,   -175.37265
    915,  -55.1703491,   401.842194,  -169.796875
    916,  -76.0165024,   401.842194,  -161.543304
    917,  -95.6638336,   401.842194,  -150.742081
    918,   -113.80249,   401.842194,  -137.563583
    919,  -130.146408,   401.842194,  -122.215622
    920,  -144.437851,   401.842194,  -104.940239
    921,  -156.451416,   401.842194,  -86.0098953
    922,   -165.99765,   401.842194,   -65.723114
    923,  -172.925995,   401.842194,  -44.3998489
    924,  -177.127197,   401.842194,  -22.3763695
    925,  -178.535004,   401.842194,           0.
    926,  -177.127197,   401.842194,   22.3763695
    927,  -172.925995,   401.842194,   44.3998489
    928,   -165.99765,   401.842194,    65.723114
    929,  -156.451416,   401.842194,   86.0098953
    930,  -144.437851,   401.842194,   104.940239
    931,  -130.146408,   401.842194,   122.215622
    932,   -113.80249,   401.842194,   137.563583
    933,  -95.6638336,   401.842194,   150.742081
    934,  -76.0165024,   401.842194,   161.543304
    935,  -55.1703491,   401.842194,   169.796875
    936,  -33.4541245,   401.842194,    175.37265
    937,  -11.2103052,   401.842194,   178.182709
    938,   11.2103052,   401.842194,   178.182709
    939,   33.4541245,   401.842194,    175.37265
    940,   55.1703491,   401.842194,   169.796875
    941,   76.0165024,   401.842194,   161.543304
    942,   95.6638336,   401.842194,   150.742081
    943,    113.80249,   401.842194,   137.563583
    944,   130.146408,   401.842194,   122.215622
    945,   144.437851,   401.842194,   104.940239
    946,   156.451416,   401.842194,   86.0098953
    947,    165.99765,   401.842194,    65.723114
    948,   172.925995,   401.842194,   44.3998489
    949,   177.127197,   401.842194,   22.3763695
    950,   178.535004,   401.842194,           0.
    951,   177.127197,   424.166779,  -22.3763695
    952,   172.925995,   424.166779,  -44.3998489
    953,    165.99765,   424.166779,   -65.723114
    954,   156.451416,   424.166779,  -86.0098953
    955,   144.437851,   424.166779,  -104.940239
    956,   130.146408,   424.166779,  -122.215622
    957,    113.80249,   424.166779,  -137.563583
    958,   95.6638336,   424.166779,  -150.742081
    959,   76.0165024,   424.166779,  -161.543304
    960,   55.1703491,   424.166779,  -169.796875
    961,   33.4541245,   424.166779,   -175.37265
    962,   11.2103052,   424.166779,  -178.182709
    963,  -11.2103052,   424.166779,  -178.182709
    964,  -33.4541245,   424.166779,   -175.37265
    965,  -55.1703491,   424.166779,  -169.796875
    966,  -76.0165024,   424.166779,  -161.543304
    967,  -95.6638336,   424.166779,  -150.742081
    968,   -113.80249,   424.166779,  -137.563583
    969,  -130.146408,   424.166779,  -122.215622
    970,  -144.437851,   424.166779,  -104.940239
    971,  -156.451416,   424.166779,  -86.0098953
    972,   -165.99765,   424.166779,   -65.723114
    973,  -172.925995,   424.166779,  -44.3998489
    974,  -177.127197,   424.166779,  -22.3763695
    975,  -178.535004,   424.166779,           0.
    976,  -177.127197,   424.166779,   22.3763695
    977,  -172.925995,   424.166779,   44.3998489
    978,   -165.99765,   424.166779,    65.723114
    979,  -156.451416,   424.166779,   86.0098953
    980,  -144.437851,   424.166779,   104.940239
    981,  -130.146408,   424.166779,   122.215622
    982,   -113.80249,   424.166779,   137.563583
    983,  -95.6638336,   424.166779,   150.742081
    984,  -76.0165024,   424.166779,   161.543304
    985,  -55.1703491,   424.166779,   169.796875
    986,  -33.4541245,   424.166779,    175.37265
    987,  -11.2103052,   424.166779,   178.182709
    988,   11.2103052,   424.166779,   178.182709
    989,   33.4541245,   424.166779,    175.37265
    990,   55.1703491,   424.166779,   169.796875
    991,   76.0165024,   424.166779,   161.543304
    992,   95.6638336,   424.166779,   150.742081
    993,    113.80249,   424.166779,   137.563583
    994,   130.146408,   424.166779,   122.215622
    995,   144.437851,   424.166779,   104.940239
    996,   156.451416,   424.166779,   86.0098953
    997,    165.99765,   424.166779,    65.723114
    998,   172.925995,   424.166779,   44.3998489
    999,   177.127197,   424.166779,   22.3763695
   1000,   178.535004,   424.166779,           0.
   1001,   177.127197,   446.491333,  -22.3763695
   1002,   172.925995,   446.491333,  -44.3998489
   1003,    165.99765,   446.491333,   -65.723114
   1004,   156.451416,   446.491333,  -86.0098953
   1005,   144.437851,   446.491333,  -104.940239
   1006,   130.146408,   446.491333,  -122.215622
   1007,    113.80249,   446.491333,  -137.563583
   1008,   95.6638336,   446.491333,  -150.742081
   1009,   76.0165024,   446.491333,  -161.543304
   1010,   55.1703491,   446.491333,  -169.796875
   1011,   33.4541245,   446.491333,   -175.37265
   1012,   11.2103052,   446.491333,  -178.182709
   1013,  -11.2103052,   446.491333,  -178.182709
   1014,  -33.4541245,   446.491333,   -175.37265
   1015,  -55.1703491,   446.491333,  -169.796875
   1016,  -76.0165024,   446.491333,  -161.543304
   1017,  -95.6638336,   446.491333,  -150.742081
   1018,   -113.80249,   446.491333,  -137.563583
   1019,  -130.146408,   446.491333,  -122.215622
   1020,  -144.437851,   446.491333,  -104.940239
   1021,  -156.451416,   446.491333,  -86.0098953
   1022,   -165.99765,   446.491333,   -65.723114
   1023,  -172.925995,   446.491333,  -44.3998489
   1024,  -177.127197,   446.491333,  -22.3763695
   1025,  -178.535004,   446.491333,           0.
   1026,  -177.127197,   446.491333,   22.3763695
   1027,  -172.925995,   446.491333,   44.3998489
   1028,   -165.99765,   446.491333,    65.723114
   1029,  -156.451416,   446.491333,   86.0098953
   1030,  -144.437851,   446.491333,   104.940239
   1031,  -130.146408,   446.491333,   122.215622
   1032,   -113.80249,   446.491333,   137.563583
   1033,  -95.6638336,   446.491333,   150.742081
   1034,  -76.0165024,   446.491333,   161.543304
   1035,  -55.1703491,   446.491333,   169.796875
   1036,  -33.4541245,   446.491333,    175.37265
   1037,  -11.2103052,   446.491333,   178.182709
   1038,   11.2103052,   446.491333,   178.182709
   1039,   33.4541245,   446.491333,    175.37265
   1040,   55.1703491,   446.491333,   169.796875
   1041,   76.0165024,   446.491333,   161.543304
   1042,   95.6638336,   446.491333,   150.742081
   1043,    113.80249,   446.491333,   137.563583
   1044,   130.146408,   446.491333,   122.215622
   1045,   144.437851,   446.491333,   104.940239
   1046,   156.451416,   446.491333,   86.0098953
   1047,    165.99765,   446.491333,    65.723114
   1048,   172.925995,   446.491333,   44.3998489
   1049,   177.127197,   446.491333,   22.3763695
   1050,   178.535004,   446.491333,           0.
   1051,   177.127197,   468.815887,  -22.3763695
   1052,   172.925995,   468.815887,  -44.3998489
   1053,    165.99765,   468.815887,   -65.723114
   1054,   156.451416,   468.815887,  -86.0098953
   1055,   144.437851,   468.815887,  -104.940239
   1056,   130.146408,   468.815887,  -122.215622
   1057,    113.80249,   468.815887,  -137.563583
   1058,   95.6638336,   468.815887,  -150.742081
   1059,   76.0165024,   468.815887,  -161.543304
   1060,   55.1703491,   468.815887,  -169.796875
   1061,   33.4541245,   468.815887,   -175.37265
   1062,   11.2103052,   468.815887,  -178.182709
   1063,  -11.2103052,   468.815887,  -178.182709
   1064,  -33.4541245,   468.815887,   -175.37265
   1065,  -55.1703491,   468.815887,  -169.796875
   1066,  -76.0165024,   468.815887,  -161.543304
   1067,  -95.6638336,   468.815887,  -150.742081
   1068,   -113.80249,   468.815887,  -137.563583
   1069,  -130.146408,   468.815887,  -122.215622
   1070,  -144.437851,   468.815887,  -104.940239
   1071,  -156.451416,   468.815887,  -86.0098953
   1072,   -165.99765,   468.815887,   -65.723114
   1073,  -172.925995,   468.815887,  -44.3998489
   1074,  -177.127197,   468.815887,  -22.3763695
   1075,  -178.535004,   468.815887,           0.
   1076,  -177.127197,   468.815887,   22.3763695
   1077,  -172.925995,   468.815887,   44.3998489
   1078,   -165.99765,   468.815887,    65.723114
   1079,  -156.451416,   468.815887,   86.0098953
   1080,  -144.437851,   468.815887,   104.940239
   1081,  -130.146408,   468.815887,   122.215622
   1082,   -113.80249,   468.815887,   137.563583
   1083,  -95.6638336,   468.815887,   150.742081
   1084,  -76.0165024,   468.815887,   161.543304
   1085,  -55.1703491,   468.815887,   169.796875
   1086,  -33.4541245,   468.815887,    175.37265
   1087,  -11.2103052,   468.815887,   178.182709
   1088,   11.2103052,   468.815887,   178.182709
   1089,   33.4541245,   468.815887,    175.37265
   1090,   55.1703491,   468.815887,   169.796875
   1091,   76.0165024,   468.815887,   161.543304
   1092,   95.6638336,   468.815887,   150.742081
   1093,    113.80249,   468.815887,   137.563583
   1094,   130.146408,   468.815887,   122.215622
   1095,   144.437851,   468.815887,   104.940239
   1096,   156.451416,   468.815887,   86.0098953
   1097,    165.99765,   468.815887,    65.723114
   1098,   172.925995,   468.815887,   44.3998489
   1099,   177.127197,   468.815887,   22.3763695
   1100,   178.535004,   468.815887,           0.
   1101,   177.127197,   491.140472,  -22.3763695
   1102,   172.925995,   491.140472,  -44.3998489
   1103,    165.99765,   491.140472,   -65.723114
   1104,   156.451416,   491.140472,  -86.0098953
   1105,   144.437851,   491.140472,  -104.940239
   1106,   130.146408,   491.140472,  -122.215622
   1107,    113.80249,   491.140472,  -137.563583
   1108,   95.6638336,   491.140472,  -150.742081
   1109,   76.0165024,   491.140472,  -161.543304
   1110,   55.1703491,   491.140472,  -169.796875
   1111,   33.4541245,   491.140472,   -175.37265
   1112,   11.2103052,   491.140472,  -178.182709
   1113,  -11.2103052,   491.140472,  -178.182709
   1114,  -33.4541245,   491.140472,   -175.37265
   1115,  -55.1703491,   491.140472,  -169.796875
   1116,  -76.0165024,   491.140472,  -161.543304
   1117,  -95.6638336,   491.140472,  -150.742081
   1118,   -113.80249,   491.140472,  -137.563583
   1119,  -130.146408,   491.140472,  -122.215622
   1120,  -144.437851,   491.140472,  -104.940239
   1121,  -156.451416,   491.140472,  -86.0098953
   1122,   -165.99765,   491.140472,   -65.723114
   1123,  -172.925995,   491.140472,  -44.3998489
   1124,  -177.127197,   491.140472,  -22.3763695
   1125,  -178.535004,   491.140472,           0.
   1126,  -177.127197,   491.140472,   22.3763695
   1127,  -172.925995,   491.140472,   44.3998489
   1128,   -165.99765,   491.140472,    65.723114
   1129,  -156.451416,   491.140472,   86.0098953
   1130,  -144.437851,   491.140472,   104.940239
   1131,  -130.146408,   491.140472,   122.215622
   1132,   -113.80249,   491.140472,   137.563583
   1133,  -95.6638336,   491.140472,   150.742081
   1134,  -76.0165024,   491.140472,   161.543304
   1135,  -55.1703491,   491.140472,   169.796875
   1136,  -33.4541245,   491.140472,    175.37265
   1137,  -11.2103052,   491.140472,   178.182709
   1138,   11.2103052,   491.140472,   178.182709
   1139,   33.4541245,   491.140472,    175.37265
   1140,   55.1703491,   491.140472,   169.796875
   1141,   76.0165024,   491.140472,   161.543304
   1142,   95.6638336,   491.140472,   150.742081
   1143,    113.80249,   491.140472,   137.563583
   1144,   130.146408,   491.140472,   122.215622
   1145,   144.437851,   491.140472,   104.940239
   1146,   156.451416,   491.140472,   86.0098953
   1147,    165.99765,   491.140472,    65.723114
   1148,   172.925995,   491.140472,   44.3998489
   1149,   177.127197,   491.140472,   22.3763695
   1150,   178.535004,   491.140472,           0.
   1151,   177.127197,   513.465027,  -22.3763695
   1152,   172.925995,   513.465027,  -44.3998489
   1153,    165.99765,   513.465027,   -65.723114
   1154,   156.451416,   513.465027,  -86.0098953
   1155,   144.437851,   513.465027,  -104.940239
   1156,   130.146408,   513.465027,  -122.215622
   1157,    113.80249,   513.465027,  -137.563583
   1158,   95.6638336,   513.465027,  -150.742081
   1159,   76.0165024,   513.465027,  -161.543304
   1160,   55.1703491,   513.465027,  -169.796875
   1161,   33.4541245,   513.465027,   -175.37265
   1162,   11.2103052,   513.465027,  -178.182709
   1163,  -11.2103052,   513.465027,  -178.182709
   1164,  -33.4541245,   513.465027,   -175.37265
   1165,  -55.1703491,   513.465027,  -169.796875
   1166,  -76.0165024,   513.465027,  -161.543304
   1167,  -95.6638336,   513.465027,  -150.742081
   1168,   -113.80249,   513.465027,  -137.563583
   1169,  -130.146408,   513.465027,  -122.215622
   1170,  -144.437851,   513.465027,  -104.940239
   1171,  -156.451416,   513.465027,  -86.0098953
   1172,   -165.99765,   513.465027,   -65.723114
   1173,  -172.925995,   513.465027,  -44.3998489
   1174,  -177.127197,   513.465027,  -22.3763695
   1175,  -178.535004,   513.465027,           0.
   1176,  -177.127197,   513.465027,   22.3763695
   1177,  -172.925995,   513.465027,   44.3998489
   1178,   -165.99765,   513.465027,    65.723114
   1179,  -156.451416,   513.465027,   86.0098953
   1180,  -144.437851,   513.465027,   104.940239
   1181,  -130.146408,   513.465027,   122.215622
   1182,   -113.80249,   513.465027,   137.563583
   1183,  -95.6638336,   513.465027,   150.742081
   1184,  -76.0165024,   513.465027,   161.543304
   1185,  -55.1703491,   513.465027,   169.796875
   1186,  -33.4541245,   513.465027,    175.37265
   1187,  -11.2103052,   513.465027,   178.182709
   1188,   11.2103052,   513.465027,   178.182709
   1189,   33.4541245,   513.465027,    175.37265
   1190,   55.1703491,   513.465027,   169.796875
   1191,   76.0165024,   513.465027,   161.543304
   1192,   95.6638336,   513.465027,   150.742081
   1193,    113.80249,   513.465027,   137.563583
   1194,   130.146408,   513.465027,   122.215622
   1195,   144.437851,   513.465027,   104.940239
   1196,   156.451416,   513.465027,   86.0098953
   1197,    165.99765,   513.465027,    65.723114
   1198,   172.925995,   513.465027,   44.3998489
   1199,   177.127197,   513.465027,   22.3763695
   1200,   178.535004,   513.465027,           0.
   1201,   177.127197,   535.789612,  -22.3763695
   1202,   172.925995,   535.789612,  -44.3998489
   1203,    165.99765,   535.789612,   -65.723114
   1204,   156.451416,   535.789612,  -86.0098953
   1205,   144.437851,   535.789612,  -104.940239
   1206,   130.146408,   535.789612,  -122.215622
   1207,    113.80249,   535.789612,  -137.563583
   1208,   95.6638336,   535.789612,  -150.742081
   1209,   76.0165024,   535.789612,  -161.543304
   1210,   55.1703491,   535.789612,  -169.796875
   1211,   33.4541245,   535.789612,   -175.37265
   1212,   11.2103052,   535.789612,  -178.182709
   1213,  -11.2103052,   535.789612,  -178.182709
   1214,  -33.4541245,   535.789612,   -175.37265
   1215,  -55.1703491,   535.789612,  -169.796875
   1216,  -76.0165024,   535.789612,  -161.543304
   1217,  -95.6638336,   535.789612,  -150.742081
   1218,   -113.80249,   535.789612,  -137.563583
   1219,  -130.146408,   535.789612,  -122.215622
   1220,  -144.437851,   535.789612,  -104.940239
   1221,  -156.451416,   535.789612,  -86.0098953
   1222,   -165.99765,   535.789612,   -65.723114
   1223,  -172.925995,   535.789612,  -44.3998489
   1224,  -177.127197,   535.789612,  -22.3763695
   1225,  -178.535004,   535.789612,           0.
   1226,  -177.127197,   535.789612,   22.3763695
   1227,  -172.925995,   535.789612,   44.3998489
   1228,   -165.99765,   535.789612,    65.723114
   1229,  -156.451416,   535.789612,   86.0098953
   1230,  -144.437851,   535.789612,   104.940239
   1231,  -130.146408,   535.789612,   122.215622
   1232,   -113.80249,   535.789612,   137.563583
   1233,  -95.6638336,   535.789612,   150.742081
   1234,  -76.0165024,   535.789612,   161.543304
   1235,  -55.1703491,   535.789612,   169.796875
   1236,  -33.4541245,   535.789612,    175.37265
   1237,  -11.2103052,   535.789612,   178.182709
   1238,   11.2103052,   535.789612,   178.182709
   1239,   33.4541245,   535.789612,    175.37265
   1240,   55.1703491,   535.789612,   169.796875
   1241,   76.0165024,   535.789612,   161.543304
   1242,   95.6638336,   535.789612,   150.742081
   1243,    113.80249,   535.789612,   137.563583
   1244,   130.146408,   535.789612,   122.215622
   1245,   144.437851,   535.789612,   104.940239
   1246,   156.451416,   535.789612,   86.0098953
   1247,    165.99765,   535.789612,    65.723114
   1248,   172.925995,   535.789612,   44.3998489
   1249,   177.127197,   535.789612,   22.3763695
   1250,   178.535004,   535.789612,           0.
   1251,   177.127197,   558.114197,  -22.3763695
   1252,   172.925995,   558.114197,  -44.3998489
   1253,    165.99765,   558.114197,   -65.723114
   1254,   156.451416,   558.114197,  -86.0098953
   1255,   144.437851,   558.114197,  -104.940239
   1256,   130.146408,   558.114197,  -122.215622
   1257,    113.80249,   558.114197,  -137.563583
   1258,   95.6638336,   558.114197,  -150.742081
   1259,   76.0165024,   558.114197,  -161.543304
   1260,   55.1703491,   558.114197,  -169.796875
   1261,   33.4541245,   558.114197,   -175.37265
   1262,   11.2103052,   558.114197,  -178.182709
   1263,  -11.2103052,   558.114197,  -178.182709
   1264,  -33.4541245,   558.114197,   -175.37265
   1265,  -55.1703491,   558.114197,  -169.796875
   1266,  -76.0165024,   558.114197,  -161.543304
   1267,  -95.6638336,   558.114197,  -150.742081
   1268,   -113.80249,   558.114197,  -137.563583
   1269,  -130.146408,   558.114197,  -122.215622
   1270,  -144.437851,   558.114197,  -104.940239
   1271,  -156.451416,   558.114197,  -86.0098953
   1272,   -165.99765,   558.114197,   -65.723114
   1273,  -172.925995,   558.114197,  -44.3998489
   1274,  -177.127197,   558.114197,  -22.3763695
   1275,  -178.535004,   558.114197,           0.
   1276,  -177.127197,   558.114197,   22.3763695
   1277,  -172.925995,   558.114197,   44.3998489
   1278,   -165.99765,   558.114197,    65.723114
   1279,  -156.451416,   558.114197,   86.0098953
   1280,  -144.437851,   558.114197,   104.940239
   1281,  -130.146408,   558.114197,   122.215622
   1282,   -113.80249,   558.114197,   137.563583
   1283,  -95.6638336,   558.114197,   150.742081
   1284,  -76.0165024,   558.114197,   161.543304
   1285,  -55.1703491,   558.114197,   169.796875
   1286,  -33.4541245,   558.114197,    175.37265
   1287,  -11.2103052,   558.114197,   178.182709
   1288,   11.2103052,   558.114197,   178.182709
   1289,   33.4541245,   558.114197,    175.37265
   1290,   55.1703491,   558.114197,   169.796875
   1291,   76.0165024,   558.114197,   161.543304
   1292,   95.6638336,   558.114197,   150.742081
   1293,    113.80249,   558.114197,   137.563583
   1294,   130.146408,   558.114197,   122.215622
   1295,   144.437851,   558.114197,   104.940239
   1296,   156.451416,   558.114197,   86.0098953
   1297,    165.99765,   558.114197,    65.723114
   1298,   172.925995,   558.114197,   44.3998489
   1299,   177.127197,   558.114197,   22.3763695
   1300,   178.535004,   558.114197,           0.
   1301,   177.127197,   580.438721,  -22.3763695
   1302,   172.925995,   580.438721,  -44.3998489
   1303,    165.99765,   580.438721,   -65.723114
   1304,   156.451416,   580.438721,  -86.0098953
   1305,   144.437851,   580.438721,  -104.940239
   1306,   130.146408,   580.438721,  -122.215622
   1307,    113.80249,   580.438721,  -137.563583
   1308,   95.6638336,   580.438721,  -150.742081
   1309,   76.0165024,   580.438721,  -161.543304
   1310,   55.1703491,   580.438721,  -169.796875
   1311,   33.4541245,   580.438721,   -175.37265
   1312,   11.2103052,   580.438721,  -178.182709
   1313,  -11.2103052,   580.438721,  -178.182709
   1314,  -33.4541245,   580.438721,   -175.37265
   1315,  -55.1703491,   580.438721,  -169.796875
   1316,  -76.0165024,   580.438721,  -161.543304
   1317,  -95.6638336,   580.438721,  -150.742081
   1318,   -113.80249,   580.438721,  -137.563583
   1319,  -130.146408,   580.438721,  -122.215622
   1320,  -144.437851,   580.438721,  -104.940239
   1321,  -156.451416,   580.438721,  -86.0098953
   1322,   -165.99765,   580.438721,   -65.723114
   1323,  -172.925995,   580.438721,  -44.3998489
   1324,  -177.127197,   580.438721,  -22.3763695
   1325,  -178.535004,   580.438721,           0.
   1326,  -177.127197,   580.438721,   22.3763695
   1327,  -172.925995,   580.438721,   44.3998489
   1328,   -165.99765,   580.438721,    65.723114
   1329,  -156.451416,   580.438721,   86.0098953
   1330,  -144.437851,   580.438721,   104.940239
   1331,  -130.146408,   580.438721,   122.215622
   1332,   -113.80249,   580.438721,   137.563583
   1333,  -95.6638336,   580.438721,   150.742081
   1334,  -76.0165024,   580.438721,   161.543304
   1335,  -55.1703491,   580.438721,   169.796875
   1336,  -33.4541245,   580.438721,    175.37265
   1337,  -11.2103052,   580.438721,   178.182709
   1338,   11.2103052,   580.438721,   178.182709
   1339,   33.4541245,   580.438721,    175.37265
   1340,   55.1703491,   580.438721,   169.796875
   1341,   76.0165024,   580.438721,   161.543304
   1342,   95.6638336,   580.438721,   150.742081
   1343,    113.80249,   580.438721,   137.563583
   1344,   130.146408,   580.438721,   122.215622
   1345,   144.437851,   580.438721,   104.940239
   1346,   156.451416,   580.438721,   86.0098953
   1347,    165.99765,   580.438721,    65.723114
   1348,   172.925995,   580.438721,   44.3998489
   1349,   177.127197,   580.438721,   22.3763695
   1350,   178.535004,   580.438721,           0.
   1351,   177.127197,   602.763306,  -22.3763695
   1352,   172.925995,   602.763306,  -44.3998489
   1353,    165.99765,   602.763306,   -65.723114
   1354,   156.451416,   602.763306,  -86.0098953
   1355,   144.437851,   602.763306,  -104.940239
   1356,   130.146408,   602.763306,  -122.215622
   1357,    113.80249,   602.763306,  -137.563583
   1358,   95.6638336,   602.763306,  -150.742081
   1359,   76.0165024,   602.763306,  -161.543304
   1360,   55.1703491,   602.763306,  -169.796875
   1361,   33.4541245,   602.763306,   -175.37265
   1362,   11.2103052,   602.763306,  -178.182709
   1363,  -11.2103052,   602.763306,  -178.182709
   1364,  -33.4541245,   602.763306,   -175.37265
   1365,  -55.1703491,   602.763306,  -169.796875
   1366,  -76.0165024,   602.763306,  -161.543304
   1367,  -95.6638336,   602.763306,  -150.742081
   1368,   -113.80249,   602.763306,  -137.563583
   1369,  -130.146408,   602.763306,  -122.215622
   1370,  -144.437851,   602.763306,  -104.940239
   1371,  -156.451416,   602.763306,  -86.0098953
   1372,   -165.99765,   602.763306,   -65.723114
   1373,  -172.925995,   602.763306,  -44.3998489
   1374,  -177.127197,   602.763306,  -22.3763695
   1375,  -178.535004,   602.763306,           0.
   1376,  -177.127197,   602.763306,   22.3763695
   1377,  -172.925995,   602.763306,   44.3998489
   1378,   -165.99765,   602.763306,    65.723114
   1379,  -156.451416,   602.763306,   86.0098953
   1380,  -144.437851,   602.763306,   104.940239
   1381,  -130.146408,   602.763306,   122.215622
   1382,   -113.80249,   602.763306,   137.563583
   1383,  -95.6638336,   602.763306,   150.742081
   1384,  -76.0165024,   602.763306,   161.543304
   1385,  -55.1703491,   602.763306,   169.796875
   1386,  -33.4541245,   602.763306,    175.37265
   1387,  -11.2103052,   602.763306,   178.182709
   1388,   11.2103052,   602.763306,   178.182709
   1389,   33.4541245,   602.763306,    175.37265
   1390,   55.1703491,   602.763306,   169.796875
   1391,   76.0165024,   602.763306,   161.543304
   1392,   95.6638336,   602.763306,   150.742081
   1393,    113.80249,   602.763306,   137.563583
   1394,   130.146408,   602.763306,   122.215622
   1395,   144.437851,   602.763306,   104.940239
   1396,   156.451416,   602.763306,   86.0098953
   1397,    165.99765,   602.763306,    65.723114
   1398,   172.925995,   602.763306,   44.3998489
   1399,   177.127197,   602.763306,   22.3763695
   1400,   178.535004,   602.763306,           0.
   1401,   177.127197,   625.087891,  -22.3763695
   1402,   172.925995,   625.087891,  -44.3998489
   1403,    165.99765,   625.087891,   -65.723114
   1404,   156.451416,   625.087891,  -86.0098953
   1405,   144.437851,   625.087891,  -104.940239
   1406,   130.146408,   625.087891,  -122.215622
   1407,    113.80249,   625.087891,  -137.563583
   1408,   95.6638336,   625.087891,  -150.742081
   1409,   76.0165024,   625.087891,  -161.543304
   1410,   55.1703491,   625.087891,  -169.796875
   1411,   33.4541245,   625.087891,   -175.37265
   1412,   11.2103052,   625.087891,  -178.182709
   1413,  -11.2103052,   625.087891,  -178.182709
   1414,  -33.4541245,   625.087891,   -175.37265
   1415,  -55.1703491,   625.087891,  -169.796875
   1416,  -76.0165024,   625.087891,  -161.543304
   1417,  -95.6638336,   625.087891,  -150.742081
   1418,   -113.80249,   625.087891,  -137.563583
   1419,  -130.146408,   625.087891,  -122.215622
   1420,  -144.437851,   625.087891,  -104.940239
   1421,  -156.451416,   625.087891,  -86.0098953
   1422,   -165.99765,   625.087891,   -65.723114
   1423,  -172.925995,   625.087891,  -44.3998489
   1424,  -177.127197,   625.087891,  -22.3763695
   1425,  -178.535004,   625.087891,           0.
   1426,  -177.127197,   625.087891,   22.3763695
   1427,  -172.925995,   625.087891,   44.3998489
   1428,   -165.99765,   625.087891,    65.723114
   1429,  -156.451416,   625.087891,   86.0098953
   1430,  -144.437851,   625.087891,   104.940239
   1431,  -130.146408,   625.087891,   122.215622
   1432,   -113.80249,   625.087891,   137.563583
   1433,  -95.6638336,   625.087891,   150.742081
   1434,  -76.0165024,   625.087891,   161.543304
   1435,  -55.1703491,   625.087891,   169.796875
   1436,  -33.4541245,   625.087891,    175.37265
   1437,  -11.2103052,   625.087891,   178.182709
   1438,   11.2103052,   625.087891,   178.182709
   1439,   33.4541245,   625.087891,    175.37265
   1440,   55.1703491,   625.087891,   169.796875
   1441,   76.0165024,   625.087891,   161.543304
   1442,   95.6638336,   625.087891,   150.742081
   1443,    113.80249,   625.087891,   137.563583
   1444,   130.146408,   625.087891,   122.215622
   1445,   144.437851,   625.087891,   104.940239
   1446,   156.451416,   625.087891,   86.0098953
   1447,    165.99765,   625.087891,    65.723114
   1448,   172.925995,   625.087891,   44.3998489
   1449,   177.127197,   625.087891,   22.3763695
   1450,   178.535004,   625.087891,           0.
   1451,   177.127197,   647.412415,  -22.3763695
   1452,   172.925995,   647.412415,  -44.3998489
   1453,    165.99765,   647.412415,   -65.723114
   1454,   156.451416,   647.412415,  -86.0098953
   1455,   144.437851,   647.412415,  -104.940239
   1456,   130.146408,   647.412415,  -122.215622
   1457,    113.80249,   647.412415,  -137.563583
   1458,   95.6638336,   647.412415,  -150.742081
   1459,   76.0165024,   647.412415,  -161.543304
   1460,   55.1703491,   647.412415,  -169.796875
   1461,   33.4541245,   647.412415,   -175.37265
   1462,   11.2103052,   647.412415,  -178.182709
   1463,  -11.2103052,   647.412415,  -178.182709
   1464,  -33.4541245,   647.412415,   -175.37265
   1465,  -55.1703491,   647.412415,  -169.796875
   1466,  -76.0165024,   647.412415,  -161.543304
   1467,  -95.6638336,   647.412415,  -150.742081
   1468,   -113.80249,   647.412415,  -137.563583
   1469,  -130.146408,   647.412415,  -122.215622
   1470,  -144.437851,   647.412415,  -104.940239
   1471,  -156.451416,   647.412415,  -86.0098953
   1472,   -165.99765,   647.412415,   -65.723114
   1473,  -172.925995,   647.412415,  -44.3998489
   1474,  -177.127197,   647.412415,  -22.3763695
   1475,  -178.535004,   647.412415,           0.
   1476,  -177.127197,   647.412415,   22.3763695
   1477,  -172.925995,   647.412415,   44.3998489
   1478,   -165.99765,   647.412415,    65.723114
   1479,  -156.451416,   647.412415,   86.0098953
   1480,  -144.437851,   647.412415,   104.940239
   1481,  -130.146408,   647.412415,   122.215622
   1482,   -113.80249,   647.412415,   137.563583
   1483,  -95.6638336,   647.412415,   150.742081
   1484,  -76.0165024,   647.412415,   161.543304
   1485,  -55.1703491,   647.412415,   169.796875
   1486,  -33.4541245,   647.412415,    175.37265
   1487,  -11.2103052,   647.412415,   178.182709
   1488,   11.2103052,   647.412415,   178.182709
   1489,   33.4541245,   647.412415,    175.37265
   1490,   55.1703491,   647.412415,   169.796875
   1491,   76.0165024,   647.412415,   161.543304
   1492,   95.6638336,   647.412415,   150.742081
   1493,    113.80249,   647.412415,   137.563583
   1494,   130.146408,   647.412415,   122.215622
   1495,   144.437851,   647.412415,   104.940239
   1496,   156.451416,   647.412415,   86.0098953
   1497,    165.99765,   647.412415,    65.723114
   1498,   172.925995,   647.412415,   44.3998489
   1499,   177.127197,   647.412415,   22.3763695
   1500,   178.535004,   647.412415,           0.
   1501,   177.127197,      669.737,  -22.3763695
   1502,   172.925995,      669.737,  -44.3998489
   1503,    165.99765,      669.737,   -65.723114
   1504,   156.451416,      669.737,  -86.0098953
   1505,   144.437851,      669.737,  -104.940239
   1506,   130.146408,      669.737,  -122.215614
   1507,    113.80249,      669.737,  -137.563583
   1508,   95.6638336,      669.737,  -150.742081
   1509,   76.0165024,      669.737,  -161.543304
   1510,   55.1703491,      669.737,  -169.796875
   1511,   33.4541245,      669.737,   -175.37265
   1512,   11.2103052,      669.737,  -178.182709
   1513,  -11.2103052,      669.737,  -178.182709
   1514,  -33.4541245,      669.737,   -175.37265
   1515,  -55.1703491,      669.737,  -169.796875
   1516,  -76.0165024,      669.737,  -161.543304
   1517,  -95.6638336,      669.737,  -150.742081
   1518,   -113.80249,      669.737,  -137.563583
   1519,  -130.146408,      669.737,  -122.215614
   1520,  -144.437851,      669.737,  -104.940239
   1521,  -156.451416,      669.737,  -86.0098953
   1522,   -165.99765,      669.737,   -65.723114
   1523,  -172.925995,      669.737,  -44.3998489
   1524,  -177.127197,      669.737,  -22.3763695
   1525,  -178.535004,      669.737,           0.
   1526,  -177.127197,      669.737,   22.3763695
   1527,  -172.925995,      669.737,   44.3998489
   1528,   -165.99765,      669.737,    65.723114
   1529,  -156.451416,      669.737,   86.0098953
   1530,  -144.437851,      669.737,   104.940239
   1531,  -130.146408,      669.737,   122.215614
   1532,   -113.80249,      669.737,   137.563583
   1533,  -95.6638336,      669.737,   150.742081
   1534,  -76.0165024,      669.737,   161.543304
   1535,  -55.1703491,      669.737,   169.796875
   1536,  -33.4541245,      669.737,    175.37265
   1537,  -11.2103052,      669.737,   178.182709
   1538,   11.2103052,      669.737,   178.182709
   1539,   33.4541245,      669.737,    175.37265
   1540,   55.1703491,      669.737,   169.796875
   1541,   76.0165024,      669.737,   161.543304
   1542,   95.6638336,      669.737,   150.742081
   1543,    113.80249,      669.737,   137.563583
   1544,   130.146408,      669.737,   122.215614
   1545,   144.437851,      669.737,   104.940239
   1546,   156.451416,      669.737,   86.0098953
   1547,    165.99765,      669.737,    65.723114
   1548,   172.925995,      669.737,   44.3998489
   1549,   177.127197,      669.737,   22.3763695
   1550,   178.535004,      669.737,           0.
*Element, type=S4R
   1,   50,    1,   51,  100
   2,    1,    2,   52,   51
   3,    2,    3,   53,   52
   4,    3,    4,   54,   53
   5,    4,    5,   55,   54
   6,    5,    6,   56,   55
   7,    6,    7,   57,   56
   8,    7,    8,   58,   57
   9,    8,    9,   59,   58
  10,    9,   10,   60,   59
  11,   10,   11,   61,   60
  12,   11,   12,   62,   61
  13,   12,   13,   63,   62
  14,   13,   14,   64,   63
  15,   14,   15,   65,   64
  16,   15,   16,   66,   65
  17,   16,   17,   67,   66
  18,   17,   18,   68,   67
  19,   18,   19,   69,   68
  20,   19,   20,   70,   69
  21,   20,   21,   71,   70
  22,   21,   22,   72,   71
  23,   22,   23,   73,   72
  24,   23,   24,   74,   73
  25,   24,   25,   75,   74
  26,   25,   26,   76,   75
  27,   26,   27,   77,   76
  28,   27,   28,   78,   77
  29,   28,   29,   79,   78
  30,   29,   30,   80,   79
  31,   30,   31,   81,   80
  32,   31,   32,   82,   81
  33,   32,   33,   83,   82
  34,   33,   34,   84,   83
  35,   34,   35,   85,   84
  36,   35,   36,   86,   85
  37,   36,   37,   87,   86
  38,   37,   38,   88,   87
  39,   38,   39,   89,   88
  40,   39,   40,   90,   89
  41,   40,   41,   91,   90
  42,   41,   42,   92,   91
  43,   42,   43,   93,   92
  44,   43,   44,   94,   93
  45,   44,   45,   95,   94
  46,   45,   46,   96,   95
  47,   46,   47,   97,   96
  48,   47,   48,   98,   97
  49,   48,   49,   99,   98
  50,   49,   50,  100,   99
  51,  100,   51,  101,  150
  52,   51,   52,  102,  101
  53,   52,   53,  103,  102
  54,   53,   54,  104,  103
  55,   54,   55,  105,  104
  56,   55,   56,  106,  105
  57,   56,   57,  107,  106
  58,   57,   58,  108,  107
  59,   58,   59,  109,  108
  60,   59,   60,  110,  109
  61,   60,   61,  111,  110
  62,   61,   62,  112,  111
  63,   62,   63,  113,  112
  64,   63,   64,  114,  113
  65,   64,   65,  115,  114
  66,   65,   66,  116,  115
  67,   66,   67,  117,  116
  68,   67,   68,  118,  117
  69,   68,   69,  119,  118
  70,   69,   70,  120,  119
  71,   70,   71,  121,  120
  72,   71,   72,  122,  121
  73,   72,   73,  123,  122
  74,   73,   74,  124,  123
  75,   74,   75,  125,  124
  76,   75,   76,  126,  125
  77,   76,   77,  127,  126
  78,   77,   78,  128,  127
  79,   78,   79,  129,  128
  80,   79,   80,  130,  129
  81,   80,   81,  131,  130
  82,   81,   82,  132,  131
  83,   82,   83,  133,  132
  84,   83,   84,  134,  133
  85,   84,   85,  135,  134
  86,   85,   86,  136,  135
  87,   86,   87,  137,  136
  88,   87,   88,  138,  137
  89,   88,   89,  139,  138
  90,   89,   90,  140,  139
  91,   90,   91,  141,  140
  92,   91,   92,  142,  141
  93,   92,   93,  143,  142
  94,   93,   94,  144,  143
  95,   94,   95,  145,  144
  96,   95,   96,  146,  145
  97,   96,   97,  147,  146
  98,   97,   98,  148,  147
  99,   98,   99,  149,  148
 100,   99,  100,  150,  149
 101,  150,  101,  151,  200
 102,  101,  102,  152,  151
 103,  102,  103,  153,  152
 104,  103,  104,  154,  153
 105,  104,  105,  155,  154
 106,  105,  106,  156,  155
 107,  106,  107,  157,  156
 108,  107,  108,  158,  157
 109,  108,  109,  159,  158
 110,  109,  110,  160,  159
 111,  110,  111,  161,  160
 112,  111,  112,  162,  161
 113,  112,  113,  163,  162
 114,  113,  114,  164,  163
 115,  114,  115,  165,  164
 116,  115,  116,  166,  165
 117,  116,  117,  167,  166
 118,  117,  118,  168,  167
 119,  118,  119,  169,  168
 120,  119,  120,  170,  169
 121,  120,  121,  171,  170
 122,  121,  122,  172,  171
 123,  122,  123,  173,  172
 124,  123,  124,  174,  173
 125,  124,  125,  175,  174
 126,  125,  126,  176,  175
 127,  126,  127,  177,  176
 128,  127,  128,  178,  177
 129,  128,  129,  179,  178
 130,  129,  130,  180,  179
 131,  130,  131,  181,  180
 132,  131,  132,  182,  181
 133,  132,  133,  183,  182
 134,  133,  134,  184,  183
 135,  134,  135,  185,  184
 136,  135,  136,  186,  185
 137,  136,  137,  187,  186
 138,  137,  138,  188,  187
 139,  138,  139,  189,  188
 140,  139,  140,  190,  189
 141,  140,  141,  191,  190
 142,  141,  142,  192,  191
 143,  142,  143,  193,  192
 144,  143,  144,  194,  193
 145,  144,  145,  195,  194
 146,  145,  146,  196,  195
 147,  146,  147,  197,  196
 148,  147,  148,  198,  197
 149,  148,  149,  199,  198
 150,  149,  150,  200,  199
 151,  200,  151,  201,  250
 152,  151,  152,  202,  201
 153,  152,  153,  203,  202
 154,  153,  154,  204,  203
 155,  154,  155,  205,  204
 156,  155,  156,  206,  205
 157,  156,  157,  207,  206
 158,  157,  158,  208,  207
 159,  158,  159,  209,  208
 160,  159,  160,  210,  209
 161,  160,  161,  211,  210
 162,  161,  162,  212,  211
 163,  162,  163,  213,  212
 164,  163,  164,  214,  213
 165,  164,  165,  215,  214
 166,  165,  166,  216,  215
 167,  166,  167,  217,  216
 168,  167,  168,  218,  217
 169,  168,  169,  219,  218
 170,  169,  170,  220,  219
 171,  170,  171,  221,  220
 172,  171,  172,  222,  221
 173,  172,  173,  223,  222
 174,  173,  174,  224,  223
 175,  174,  175,  225,  224
 176,  175,  176,  226,  225
 177,  176,  177,  227,  226
 178,  177,  178,  228,  227
 179,  178,  179,  229,  228
 180,  179,  180,  230,  229
 181,  180,  181,  231,  230
 182,  181,  182,  232,  231
 183,  182,  183,  233,  232
 184,  183,  184,  234,  233
 185,  184,  185,  235,  234
 186,  185,  186,  236,  235
 187,  186,  187,  237,  236
 188,  187,  188,  238,  237
 189,  188,  189,  239,  238
 190,  189,  190,  240,  239
 191,  190,  191,  241,  240
 192,  191,  192,  242,  241
 193,  192,  193,  243,  242
 194,  193,  194,  244,  243
 195,  194,  195,  245,  244
 196,  195,  196,  246,  245
 197,  196,  197,  247,  246
 198,  197,  198,  248,  247
 199,  198,  199,  249,  248
 200,  199,  200,  250,  249
 201,  250,  201,  251,  300
 202,  201,  202,  252,  251
 203,  202,  203,  253,  252
 204,  203,  204,  254,  253
 205,  204,  205,  255,  254
 206,  205,  206,  256,  255
 207,  206,  207,  257,  256
 208,  207,  208,  258,  257
 209,  208,  209,  259,  258
 210,  209,  210,  260,  259
 211,  210,  211,  261,  260
 212,  211,  212,  262,  261
 213,  212,  213,  263,  262
 214,  213,  214,  264,  263
 215,  214,  215,  265,  264
 216,  215,  216,  266,  265
 217,  216,  217,  267,  266
 218,  217,  218,  268,  267
 219,  218,  219,  269,  268
 220,  219,  220,  270,  269
 221,  220,  221,  271,  270
 222,  221,  222,  272,  271
 223,  222,  223,  273,  272
 224,  223,  224,  274,  273
 225,  224,  225,  275,  274
 226,  225,  226,  276,  275
 227,  226,  227,  277,  276
 228,  227,  228,  278,  277
 229,  228,  229,  279,  278
 230,  229,  230,  280,  279
 231,  230,  231,  281,  280
 232,  231,  232,  282,  281
 233,  232,  233,  283,  282
 234,  233,  234,  284,  283
 235,  234,  235,  285,  284
 236,  235,  236,  286,  285
 237,  236,  237,  287,  286
 238,  237,  238,  288,  287
 239,  238,  239,  289,  288
 240,  239,  240,  290,  289
 241,  240,  241,  291,  290
 242,  241,  242,  292,  291
 243,  242,  243,  293,  292
 244,  243,  244,  294,  293
 245,  244,  245,  295,  294
 246,  245,  246,  296,  295
 247,  246,  247,  297,  296
 248,  247,  248,  298,  297
 249,  248,  249,  299,  298
 250,  249,  250,  300,  299
 251,  300,  251,  301,  350
 252,  251,  252,  302,  301
 253,  252,  253,  303,  302
 254,  253,  254,  304,  303
 255,  254,  255,  305,  304
 256,  255,  256,  306,  305
 257,  256,  257,  307,  306
 258,  257,  258,  308,  307
 259,  258,  259,  309,  308
 260,  259,  260,  310,  309
 261,  260,  261,  311,  310
 262,  261,  262,  312,  311
 263,  262,  263,  313,  312
 264,  263,  264,  314,  313
 265,  264,  265,  315,  314
 266,  265,  266,  316,  315
 267,  266,  267,  317,  316
 268,  267,  268,  318,  317
 269,  268,  269,  319,  318
 270,  269,  270,  320,  319
 271,  270,  271,  321,  320
 272,  271,  272,  322,  321
 273,  272,  273,  323,  322
 274,  273,  274,  324,  323
 275,  274,  275,  325,  324
 276,  275,  276,  326,  325
 277,  276,  277,  327,  326
 278,  277,  278,  328,  327
 279,  278,  279,  329,  328
 280,  279,  280,  330,  329
 281,  280,  281,  331,  330
 282,  281,  282,  332,  331
 283,  282,  283,  333,  332
 284,  283,  284,  334,  333
 285,  284,  285,  335,  334
 286,  285,  286,  336,  335
 287,  286,  287,  337,  336
 288,  287,  288,  338,  337
 289,  288,  289,  339,  338
 290,  289,  290,  340,  339
 291,  290,  291,  341,  340
 292,  291,  292,  342,  341
 293,  292,  293,  343,  342
 294,  293,  294,  344,  343
 295,  294,  295,  345,  344
 296,  295,  296,  346,  345
 297,  296,  297,  347,  346
 298,  297,  298,  348,  347
 299,  298,  299,  349,  348
 300,  299,  300,  350,  349
 301,  350,  301,  351,  400
 302,  301,  302,  352,  351
 303,  302,  303,  353,  352
 304,  303,  304,  354,  353
 305,  304,  305,  355,  354
 306,  305,  306,  356,  355
 307,  306,  307,  357,  356
 308,  307,  308,  358,  357
 309,  308,  309,  359,  358
 310,  309,  310,  360,  359
 311,  310,  311,  361,  360
 312,  311,  312,  362,  361
 313,  312,  313,  363,  362
 314,  313,  314,  364,  363
 315,  314,  315,  365,  364
 316,  315,  316,  366,  365
 317,  316,  317,  367,  366
 318,  317,  318,  368,  367
 319,  318,  319,  369,  368
 320,  319,  320,  370,  369
 321,  320,  321,  371,  370
 322,  321,  322,  372,  371
 323,  322,  323,  373,  372
 324,  323,  324,  374,  373
 325,  324,  325,  375,  374
 326,  325,  326,  376,  375
 327,  326,  327,  377,  376
 328,  327,  328,  378,  377
 329,  328,  329,  379,  378
 330,  329,  330,  380,  379
 331,  330,  331,  381,  380
 332,  331,  332,  382,  381
 333,  332,  333,  383,  382
 334,  333,  334,  384,  383
 335,  334,  335,  385,  384
 336,  335,  336,  386,  385
 337,  336,  337,  387,  386
 338,  337,  338,  388,  387
 339,  338,  339,  389,  388
 340,  339,  340,  390,  389
 341,  340,  341,  391,  390
 342,  341,  342,  392,  391
 343,  342,  343,  393,  392
 344,  343,  344,  394,  393
 345,  344,  345,  395,  394
 346,  345,  346,  396,  395
 347,  346,  347,  397,  396
 348,  347,  348,  398,  397
 349,  348,  349,  399,  398
 350,  349,  350,  400,  399
 351,  400,  351,  401,  450
 352,  351,  352,  402,  401
 353,  352,  353,  403,  402
 354,  353,  354,  404,  403
 355,  354,  355,  405,  404
 356,  355,  356,  406,  405
 357,  356,  357,  407,  406
 358,  357,  358,  408,  407
 359,  358,  359,  409,  408
 360,  359,  360,  410,  409
 361,  360,  361,  411,  410
 362,  361,  362,  412,  411
 363,  362,  363,  413,  412
 364,  363,  364,  414,  413
 365,  364,  365,  415,  414
 366,  365,  366,  416,  415
 367,  366,  367,  417,  416
 368,  367,  368,  418,  417
 369,  368,  369,  419,  418
 370,  369,  370,  420,  419
 371,  370,  371,  421,  420
 372,  371,  372,  422,  421
 373,  372,  373,  423,  422
 374,  373,  374,  424,  423
 375,  374,  375,  425,  424
 376,  375,  376,  426,  425
 377,  376,  377,  427,  426
 378,  377,  378,  428,  427
 379,  378,  379,  429,  428
 380,  379,  380,  430,  429
 381,  380,  381,  431,  430
 382,  381,  382,  432,  431
 383,  382,  383,  433,  432
 384,  383,  384,  434,  433
 385,  384,  385,  435,  434
 386,  385,  386,  436,  435
 387,  386,  387,  437,  436
 388,  387,  388,  438,  437
 389,  388,  389,  439,  438
 390,  389,  390,  440,  439
 391,  390,  391,  441,  440
 392,  391,  392,  442,  441
 393,  392,  393,  443,  442
 394,  393,  394,  444,  443
 395,  394,  395,  445,  444
 396,  395,  396,  446,  445
 397,  396,  397,  447,  446
 398,  397,  398,  448,  447
 399,  398,  399,  449,  448
 400,  399,  400,  450,  449
 401,  450,  401,  451,  500
 402,  401,  402,  452,  451
 403,  402,  403,  453,  452
 404,  403,  404,  454,  453
 405,  404,  405,  455,  454
 406,  405,  406,  456,  455
 407,  406,  407,  457,  456
 408,  407,  408,  458,  457
 409,  408,  409,  459,  458
 410,  409,  410,  460,  459
 411,  410,  411,  461,  460
 412,  411,  412,  462,  461
 413,  412,  413,  463,  462
 414,  413,  414,  464,  463
 415,  414,  415,  465,  464
 416,  415,  416,  466,  465
 417,  416,  417,  467,  466
 418,  417,  418,  468,  467
 419,  418,  419,  469,  468
 420,  419,  420,  470,  469
 421,  420,  421,  471,  470
 422,  421,  422,  472,  471
 423,  422,  423,  473,  472
 424,  423,  424,  474,  473
 425,  424,  425,  475,  474
 426,  425,  426,  476,  475
 427,  426,  427,  477,  476
 428,  427,  428,  478,  477
 429,  428,  429,  479,  478
 430,  429,  430,  480,  479
 431,  430,  431,  481,  480
 432,  431,  432,  482,  481
 433,  432,  433,  483,  482
 434,  433,  434,  484,  483
 435,  434,  435,  485,  484
 436,  435,  436,  486,  485
 437,  436,  437,  487,  486
 438,  437,  438,  488,  487
 439,  438,  439,  489,  488
 440,  439,  440,  490,  489
 441,  440,  441,  491,  490
 442,  441,  442,  492,  491
 443,  442,  443,  493,  492
 444,  443,  444,  494,  493
 445,  444,  445,  495,  494
 446,  445,  446,  496,  495
 447,  446,  447,  497,  496
 448,  447,  448,  498,  497
 449,  448,  449,  499,  498
 450,  449,  450,  500,  499
 451,  500,  451,  501,  550
 452,  451,  452,  502,  501
 453,  452,  453,  503,  502
 454,  453,  454,  504,  503
 455,  454,  455,  505,  504
 456,  455,  456,  506,  505
 457,  456,  457,  507,  506
 458,  457,  458,  508,  507
 459,  458,  459,  509,  508
 460,  459,  460,  510,  509
 461,  460,  461,  511,  510
 462,  461,  462,  512,  511
 463,  462,  463,  513,  512
 464,  463,  464,  514,  513
 465,  464,  465,  515,  514
 466,  465,  466,  516,  515
 467,  466,  467,  517,  516
 468,  467,  468,  518,  517
 469,  468,  469,  519,  518
 470,  469,  470,  520,  519
 471,  470,  471,  521,  520
 472,  471,  472,  522,  521
 473,  472,  473,  523,  522
 474,  473,  474,  524,  523
 475,  474,  475,  525,  524
 476,  475,  476,  526,  525
 477,  476,  477,  527,  526
 478,  477,  478,  528,  527
 479,  478,  479,  529,  528
 480,  479,  480,  530,  529
 481,  480,  481,  531,  530
 482,  481,  482,  532,  531
 483,  482,  483,  533,  532
 484,  483,  484,  534,  533
 485,  484,  485,  535,  534
 486,  485,  486,  536,  535
 487,  486,  487,  537,  536
 488,  487,  488,  538,  537
 489,  488,  489,  539,  538
 490,  489,  490,  540,  539
 491,  490,  491,  541,  540
 492,  491,  492,  542,  541
 493,  492,  493,  543,  542
 494,  493,  494,  544,  543
 495,  494,  495,  545,  544
 496,  495,  496,  546,  545
 497,  496,  497,  547,  546
 498,  497,  498,  548,  547
 499,  498,  499,  549,  548
 500,  499,  500,  550,  549
 501,  550,  501,  551,  600
 502,  501,  502,  552,  551
 503,  502,  503,  553,  552
 504,  503,  504,  554,  553
 505,  504,  505,  555,  554
 506,  505,  506,  556,  555
 507,  506,  507,  557,  556
 508,  507,  508,  558,  557
 509,  508,  509,  559,  558
 510,  509,  510,  560,  559
 511,  510,  511,  561,  560
 512,  511,  512,  562,  561
 513,  512,  513,  563,  562
 514,  513,  514,  564,  563
 515,  514,  515,  565,  564
 516,  515,  516,  566,  565
 517,  516,  517,  567,  566
 518,  517,  518,  568,  567
 519,  518,  519,  569,  568
 520,  519,  520,  570,  569
 521,  520,  521,  571,  570
 522,  521,  522,  572,  571
 523,  522,  523,  573,  572
 524,  523,  524,  574,  573
 525,  524,  525,  575,  574
 526,  525,  526,  576,  575
 527,  526,  527,  577,  576
 528,  527,  528,  578,  577
 529,  528,  529,  579,  578
 530,  529,  530,  580,  579
 531,  530,  531,  581,  580
 532,  531,  532,  582,  581
 533,  532,  533,  583,  582
 534,  533,  534,  584,  583
 535,  534,  535,  585,  584
 536,  535,  536,  586,  585
 537,  536,  537,  587,  586
 538,  537,  538,  588,  587
 539,  538,  539,  589,  588
 540,  539,  540,  590,  589
 541,  540,  541,  591,  590
 542,  541,  542,  592,  591
 543,  542,  543,  593,  592
 544,  543,  544,  594,  593
 545,  544,  545,  595,  594
 546,  545,  546,  596,  595
 547,  546,  547,  597,  596
 548,  547,  548,  598,  597
 549,  548,  549,  599,  598
 550,  549,  550,  600,  599
 551,  600,  551,  601,  650
 552,  551,  552,  602,  601
 553,  552,  553,  603,  602
 554,  553,  554,  604,  603
 555,  554,  555,  605,  604
 556,  555,  556,  606,  605
 557,  556,  557,  607,  606
 558,  557,  558,  608,  607
 559,  558,  559,  609,  608
 560,  559,  560,  610,  609
 561,  560,  561,  611,  610
 562,  561,  562,  612,  611
 563,  562,  563,  613,  612
 564,  563,  564,  614,  613
 565,  564,  565,  615,  614
 566,  565,  566,  616,  615
 567,  566,  567,  617,  616
 568,  567,  568,  618,  617
 569,  568,  569,  619,  618
 570,  569,  570,  620,  619
 571,  570,  571,  621,  620
 572,  571,  572,  622,  621
 573,  572,  573,  623,  622
 574,  573,  574,  624,  623
 575,  574,  575,  625,  624
 576,  575,  576,  626,  625
 577,  576,  577,  627,  626
 578,  577,  578,  628,  627
 579,  578,  579,  629,  628
 580,  579,  580,  630,  629
 581,  580,  581,  631,  630
 582,  581,  582,  632,  631
 583,  582,  583,  633,  632
 584,  583,  584,  634,  633
 585,  584,  585,  635,  634
 586,  585,  586,  636,  635
 587,  586,  587,  637,  636
 588,  587,  588,  638,  637
 589,  588,  589,  639,  638
 590,  589,  590,  640,  639
 591,  590,  591,  641,  640
 592,  591,  592,  642,  641
 593,  592,  593,  643,  642
 594,  593,  594,  644,  643
 595,  594,  595,  645,  644
 596,  595,  596,  646,  645
 597,  596,  597,  647,  646
 598,  597,  598,  648,  647
 599,  598,  599,  649,  648
 600,  599,  600,  650,  649
 601,  650,  601,  651,  700
 602,  601,  602,  652,  651
 603,  602,  603,  653,  652
 604,  603,  604,  654,  653
 605,  604,  605,  655,  654
 606,  605,  606,  656,  655
 607,  606,  607,  657,  656
 608,  607,  608,  658,  657
 609,  608,  609,  659,  658
 610,  609,  610,  660,  659
 611,  610,  611,  661,  660
 612,  611,  612,  662,  661
 613,  612,  613,  663,  662
 614,  613,  614,  664,  663
 615,  614,  615,  665,  664
 616,  615,  616,  666,  665
 617,  616,  617,  667,  666
 618,  617,  618,  668,  667
 619,  618,  619,  669,  668
 620,  619,  620,  670,  669
 621,  620,  621,  671,  670
 622,  621,  622,  672,  671
 623,  622,  623,  673,  672
 624,  623,  624,  674,  673
 625,  624,  625,  675,  674
 626,  625,  626,  676,  675
 627,  626,  627,  677,  676
 628,  627,  628,  678,  677
 629,  628,  629,  679,  678
 630,  629,  630,  680,  679
 631,  630,  631,  681,  680
 632,  631,  632,  682,  681
 633,  632,  633,  683,  682
 634,  633,  634,  684,  683
 635,  634,  635,  685,  684
 636,  635,  636,  686,  685
 637,  636,  637,  687,  686
 638,  637,  638,  688,  687
 639,  638,  639,  689,  688
 640,  639,  640,  690,  689
 641,  640,  641,  691,  690
 642,  641,  642,  692,  691
 643,  642,  643,  693,  692
 644,  643,  644,  694,  693
 645,  644,  645,  695,  694
 646,  645,  646,  696,  695
 647,  646,  647,  697,  696
 648,  647,  648,  698,  697
 649,  648,  649,  699,  698
 650,  649,  650,  700,  699
 651,  700,  651,  701,  750
 652,  651,  652,  702,  701
 653,  652,  653,  703,  702
 654,  653,  654,  704,  703
 655,  654,  655,  705,  704
 656,  655,  656,  706,  705
 657,  656,  657,  707,  706
 658,  657,  658,  708,  707
 659,  658,  659,  709,  708
 660,  659,  660,  710,  709
 661,  660,  661,  711,  710
 662,  661,  662,  712,  711
 663,  662,  663,  713,  712
 664,  663,  664,  714,  713
 665,  664,  665,  715,  714
 666,  665,  666,  716,  715
 667,  666,  667,  717,  716
 668,  667,  668,  718,  717
 669,  668,  669,  719,  718
 670,  669,  670,  720,  719
 671,  670,  671,  721,  720
 672,  671,  672,  722,  721
 673,  672,  673,  723,  722
 674,  673,  674,  724,  723
 675,  674,  675,  725,  724
 676,  675,  676,  726,  725
 677,  676,  677,  727,  726
 678,  677,  678,  728,  727
 679,  678,  679,  729,  728
 680,  679,  680,  730,  729
 681,  680,  681,  731,  730
 682,  681,  682,  732,  731
 683,  682,  683,  733,  732
 684,  683,  684,  734,  733
 685,  684,  685,  735,  734
 686,  685,  686,  736,  735
 687,  686,  687,  737,  736
 688,  687,  688,  738,  737
 689,  688,  689,  739,  738
 690,  689,  690,  740,  739
 691,  690,  691,  741,  740
 692,  691,  692,  742,  741
 693,  692,  693,  743,  742
 694,  693,  694,  744,  743
 695,  694,  695,  745,  744
 696,  695,  696,  746,  745
 697,  696,  697,  747,  746
 698,  697,  698,  748,  747
 699,  698,  699,  749,  748
 700,  699,  700,  750,  749
 701,  750,  701,  751,  800
 702,  701,  702,  752,  751
 703,  702,  703,  753,  752
 704,  703,  704,  754,  753
 705,  704,  705,  755,  754
 706,  705,  706,  756,  755
 707,  706,  707,  757,  756
 708,  707,  708,  758,  757
 709,  708,  709,  759,  758
 710,  709,  710,  760,  759
 711,  710,  711,  761,  760
 712,  711,  712,  762,  761
 713,  712,  713,  763,  762
 714,  713,  714,  764,  763
 715,  714,  715,  765,  764
 716,  715,  716,  766,  765
 717,  716,  717,  767,  766
 718,  717,  718,  768,  767
 719,  718,  719,  769,  768
 720,  719,  720,  770,  769
 721,  720,  721,  771,  770
 722,  721,  722,  772,  771
 723,  722,  723,  773,  772
 724,  723,  724,  774,  773
 725,  724,  725,  775,  774
 726,  725,  726,  776,  775
 727,  726,  727,  777,  776
 728,  727,  728,  778,  777
 729,  728,  729,  779,  778
 730,  729,  730,  780,  779
 731,  730,  731,  781,  780
 732,  731,  732,  782,  781
 733,  732,  733,  783,  782
 734,  733,  734,  784,  783
 735,  734,  735,  785,  784
 736,  735,  736,  786,  785
 737,  736,  737,  787,  786
 738,  737,  738,  788,  787
 739,  738,  739,  789,  788
 740,  739,  740,  790,  789
 741,  740,  741,  791,  790
 742,  741,  742,  792,  791
 743,  742,  743,  793,  792
 744,  743,  744,  794,  793
 745,  744,  745,  795,  794
 746,  745,  746,  796,  795
 747,  746,  747,  797,  796
 748,  747,  748,  798,  797
 749,  748,  749,  799,  798
 750,  749,  750,  800,  799
 751,  800,  751,  801,  850
 752,  751,  752,  802,  801
 753,  752,  753,  803,  802
 754,  753,  754,  804,  803
 755,  754,  755,  805,  804
 756,  755,  756,  806,  805
 757,  756,  757,  807,  806
 758,  757,  758,  808,  807
 759,  758,  759,  809,  808
 760,  759,  760,  810,  809
 761,  760,  761,  811,  810
 762,  761,  762,  812,  811
 763,  762,  763,  813,  812
 764,  763,  764,  814,  813
 765,  764,  765,  815,  814
 766,  765,  766,  816,  815
 767,  766,  767,  817,  816
 768,  767,  768,  818,  817
 769,  768,  769,  819,  818
 770,  769,  770,  820,  819
 771,  770,  771,  821,  820
 772,  771,  772,  822,  821
 773,  772,  773,  823,  822
 774,  773,  774,  824,  823
 775,  774,  775,  825,  824
 776,  775,  776,  826,  825
 777,  776,  777,  827,  826
 778,  777,  778,  828,  827
 779,  778,  779,  829,  828
 780,  779,  780,  830,  829
 781,  780,  781,  831,  830
 782,  781,  782,  832,  831
 783,  782,  783,  833,  832
 784,  783,  784,  834,  833
 785,  784,  785,  835,  834
 786,  785,  786,  836,  835
 787,  786,  787,  837,  836
 788,  787,  788,  838,  837
 789,  788,  789,  839,  838
 790,  789,  790,  840,  839
 791,  790,  791,  841,  840
 792,  791,  792,  842,  841
 793,  792,  793,  843,  842
 794,  793,  794,  844,  843
 795,  794,  795,  845,  844
 796,  795,  796,  846,  845
 797,  796,  797,  847,  846
 798,  797,  798,  848,  847
 799,  798,  799,  849,  848
 800,  799,  800,  850,  849
 801,  850,  801,  851,  900
 802,  801,  802,  852,  851
 803,  802,  803,  853,  852
 804,  803,  804,  854,  853
 805,  804,  805,  855,  854
 806,  805,  806,  856,  855
 807,  806,  807,  857,  856
 808,  807,  808,  858,  857
 809,  808,  809,  859,  858
 810,  809,  810,  860,  859
 811,  810,  811,  861,  860
 812,  811,  812,  862,  861
 813,  812,  813,  863,  862
 814,  813,  814,  864,  863
 815,  814,  815,  865,  864
 816,  815,  816,  866,  865
 817,  816,  817,  867,  866
 818,  817,  818,  868,  867
 819,  818,  819,  869,  868
 820,  819,  820,  870,  869
 821,  820,  821,  871,  870
 822,  821,  822,  872,  871
 823,  822,  823,  873,  872
 824,  823,  824,  874,  873
 825,  824,  825,  875,  874
 826,  825,  826,  876,  875
 827,  826,  827,  877,  876
 828,  827,  828,  878,  877
 829,  828,  829,  879,  878
 830,  829,  830,  880,  879
 831,  830,  831,  881,  880
 832,  831,  832,  882,  881
 833,  832,  833,  883,  882
 834,  833,  834,  884,  883
 835,  834,  835,  885,  884
 836,  835,  836,  886,  885
 837,  836,  837,  887,  886
 838,  837,  838,  888,  887
 839,  838,  839,  889,  888
 840,  839,  840,  890,  889
 841,  840,  841,  891,  890
 842,  841,  842,  892,  891
 843,  842,  843,  893,  892
 844,  843,  844,  894,  893
 845,  844,  845,  895,  894
 846,  845,  846,  896,  895
 847,  846,  847,  897,  896
 848,  847,  848,  898,  897
 849,  848,  849,  899,  898
 850,  849,  850,  900,  899
 851,  900,  851,  901,  950
 852,  851,  852,  902,  901
 853,  852,  853,  903,  902
 854,  853,  854,  904,  903
 855,  854,  855,  905,  904
 856,  855,  856,  906,  905
 857,  856,  857,  907,  906
 858,  857,  858,  908,  907
 859,  858,  859,  909,  908
 860,  859,  860,  910,  909
 861,  860,  861,  911,  910
 862,  861,  862,  912,  911
 863,  862,  863,  913,  912
 864,  863,  864,  914,  913
 865,  864,  865,  915,  914
 866,  865,  866,  916,  915
 867,  866,  867,  917,  916
 868,  867,  868,  918,  917
 869,  868,  869,  919,  918
 870,  869,  870,  920,  919
 871,  870,  871,  921,  920
 872,  871,  872,  922,  921
 873,  872,  873,  923,  922
 874,  873,  874,  924,  923
 875,  874,  875,  925,  924
 876,  875,  876,  926,  925
 877,  876,  877,  927,  926
 878,  877,  878,  928,  927
 879,  878,  879,  929,  928
 880,  879,  880,  930,  929
 881,  880,  881,  931,  930
 882,  881,  882,  932,  931
 883,  882,  883,  933,  932
 884,  883,  884,  934,  933
 885,  884,  885,  935,  934
 886,  885,  886,  936,  935
 887,  886,  887,  937,  936
 888,  887,  888,  938,  937
 889,  888,  889,  939,  938
 890,  889,  890,  940,  939
 891,  890,  891,  941,  940
 892,  891,  892,  942,  941
 893,  892,  893,  943,  942
 894,  893,  894,  944,  943
 895,  894,  895,  945,  944
 896,  895,  896,  946,  945
 897,  896,  897,  947,  946
 898,  897,  898,  948,  947
 899,  898,  899,  949,  948
 900,  899,  900,  950,  949
 901,  950,  901,  951, 1000
 902,  901,  902,  952,  951
 903,  902,  903,  953,  952
 904,  903,  904,  954,  953
 905,  904,  905,  955,  954
 906,  905,  906,  956,  955
 907,  906,  907,  957,  956
 908,  907,  908,  958,  957
 909,  908,  909,  959,  958
 910,  909,  910,  960,  959
 911,  910,  911,  961,  960
 912,  911,  912,  962,  961
 913,  912,  913,  963,  962
 914,  913,  914,  964,  963
 915,  914,  915,  965,  964
 916,  915,  916,  966,  965
 917,  916,  917,  967,  966
 918,  917,  918,  968,  967
 919,  918,  919,  969,  968
 920,  919,  920,  970,  969
 921,  920,  921,  971,  970
 922,  921,  922,  972,  971
 923,  922,  923,  973,  972
 924,  923,  924,  974,  973
 925,  924,  925,  975,  974
 926,  925,  926,  976,  975
 927,  926,  927,  977,  976
 928,  927,  928,  978,  977
 929,  928,  929,  979,  978
 930,  929,  930,  980,  979
 931,  930,  931,  981,  980
 932,  931,  932,  982,  981
 933,  932,  933,  983,  982
 934,  933,  934,  984,  983
 935,  934,  935,  985,  984
 936,  935,  936,  986,  985
 937,  936,  937,  987,  986
 938,  937,  938,  988,  987
 939,  938,  939,  989,  988
 940,  939,  940,  990,  989
 941,  940,  941,  991,  990
 942,  941,  942,  992,  991
 943,  942,  943,  993,  992
 944,  943,  944,  994,  993
 945,  944,  945,  995,  994
 946,  945,  946,  996,  995
 947,  946,  947,  997,  996
 948,  947,  948,  998,  997
 949,  948,  949,  999,  998
 950,  949,  950, 1000,  999
 951, 1000,  951, 1001, 1050
 952,  951,  952, 1002, 1001
 953,  952,  953, 1003, 1002
 954,  953,  954, 1004, 1003
 955,  954,  955, 1005, 1004
 956,  955,  956, 1006, 1005
 957,  956,  957, 1007, 1006
 958,  957,  958, 1008, 1007
 959,  958,  959, 1009, 1008
 960,  959,  960, 1010, 1009
 961,  960,  961, 1011, 1010
 962,  961,  962, 1012, 1011
 963,  962,  963, 1013, 1012
 964,  963,  964, 1014, 1013
 965,  964,  965, 1015, 1014
 966,  965,  966, 1016, 1015
 967,  966,  967, 1017, 1016
 968,  967,  968, 1018, 1017
 969,  968,  969, 1019, 1018
 970,  969,  970, 1020, 1019
 971,  970,  971, 1021, 1020
 972,  971,  972, 1022, 1021
 973,  972,  973, 1023, 1022
 974,  973,  974, 1024, 1023
 975,  974,  975, 1025, 1024
 976,  975,  976, 1026, 1025
 977,  976,  977, 1027, 1026
 978,  977,  978, 1028, 1027
 979,  978,  979, 1029, 1028
 980,  979,  980, 1030, 1029
 981,  980,  981, 1031, 1030
 982,  981,  982, 1032, 1031
 983,  982,  983, 1033, 1032
 984,  983,  984, 1034, 1033
 985,  984,  985, 1035, 1034
 986,  985,  986, 1036, 1035
 987,  986,  987, 1037, 1036
 988,  987,  988, 1038, 1037
 989,  988,  989, 1039, 1038
 990,  989,  990, 1040, 1039
 991,  990,  991, 1041, 1040
 992,  991,  992, 1042, 1041
 993,  992,  993, 1043, 1042
 994,  993,  994, 1044, 1043
 995,  994,  995, 1045, 1044
 996,  995,  996, 1046, 1045
 997,  996,  997, 1047, 1046
 998,  997,  998, 1048, 1047
 999,  998,  999, 1049, 1048
1000,  999, 1000, 1050, 1049
1001, 1050, 1001, 1051, 1100
1002, 1001, 1002, 1052, 1051
1003, 1002, 1003, 1053, 1052
1004, 1003, 1004, 1054, 1053
1005, 1004, 1005, 1055, 1054
1006, 1005, 1006, 1056, 1055
1007, 1006, 1007, 1057, 1056
1008, 1007, 1008, 1058, 1057
1009, 1008, 1009, 1059, 1058
1010, 1009, 1010, 1060, 1059
1011, 1010, 1011, 1061, 1060
1012, 1011, 1012, 1062, 1061
1013, 1012, 1013, 1063, 1062
1014, 1013, 1014, 1064, 1063
1015, 1014, 1015, 1065, 1064
1016, 1015, 1016, 1066, 1065
1017, 1016, 1017, 1067, 1066
1018, 1017, 1018, 1068, 1067
1019, 1018, 1019, 1069, 1068
1020, 1019, 1020, 1070, 1069
1021, 1020, 1021, 1071, 1070
1022, 1021, 1022, 1072, 1071
1023, 1022, 1023, 1073, 1072
1024, 1023, 1024, 1074, 1073
1025, 1024, 1025, 1075, 1074
1026, 1025, 1026, 1076, 1075
1027, 1026, 1027, 1077, 1076
1028, 1027, 1028, 1078, 1077
1029, 1028, 1029, 1079, 1078
1030, 1029, 1030, 1080, 1079
1031, 1030, 1031, 1081, 1080
1032, 1031, 1032, 1082, 1081
1033, 1032, 1033, 1083, 1082
1034, 1033, 1034, 1084, 1083
1035, 1034, 1035, 1085, 1084
1036, 1035, 1036, 1086, 1085
1037, 1036, 1037, 1087, 1086
1038, 1037, 1038, 1088, 1087
1039, 1038, 1039, 1089, 1088
1040, 1039, 1040, 1090, 1089
1041, 1040, 1041, 1091, 1090
1042, 1041, 1042, 1092, 1091
1043, 1042, 1043, 1093, 1092
1044, 1043, 1044, 1094, 1093
1045, 1044, 1045, 1095, 1094
1046, 1045, 1046, 1096, 1095
1047, 1046, 1047, 1097, 1096
1048, 1047, 1048, 1098, 1097
1049, 1048, 1049, 1099, 1098
1050, 1049, 1050, 1100, 1099
1051, 1100, 1051, 1101, 1150
1052, 1051, 1052, 1102, 1101
1053, 1052, 1053, 1103, 1102
1054, 1053, 1054, 1104, 1103
1055, 1054, 1055, 1105, 1104
1056, 1055, 1056, 1106, 1105
1057, 1056, 1057, 1107, 1106
1058, 1057, 1058, 1108, 1107
1059, 1058, 1059, 1109, 1108
1060, 1059, 1060, 1110, 1109
1061, 1060, 1061, 1111, 1110
1062, 1061, 1062, 1112, 1111
1063, 1062, 1063, 1113, 1112
1064, 1063, 1064, 1114, 1113
1065, 1064, 1065, 1115, 1114
1066, 1065, 1066, 1116, 1115
1067, 1066, 1067, 1117, 1116
1068, 1067, 1068, 1118, 1117
1069, 1068, 1069, 1119, 1118
1070, 1069, 1070, 1120, 1119
1071, 1070, 1071, 1121, 1120
1072, 1071, 1072, 1122, 1121
1073, 1072, 1073, 1123, 1122
1074, 1073, 1074, 1124, 1123
1075, 1074, 1075, 1125, 1124
1076, 1075, 1076, 1126, 1125
1077, 1076, 1077, 1127, 1126
1078, 1077, 1078, 1128, 1127
1079, 1078, 1079, 1129, 1128
1080, 1079, 1080, 1130, 1129
1081, 1080, 1081, 1131, 1130
1082, 1081, 1082, 1132, 1131
1083, 1082, 1083, 1133, 1132
1084, 1083, 1084, 1134, 1133
1085, 1084, 1085, 1135, 1134
1086, 1085, 1086, 1136, 1135
1087, 1086, 1087, 1137, 1136
1088, 1087, 1088, 1138, 1137
1089, 1088, 1089, 1139, 1138
1090, 1089, 1090, 1140, 1139
1091, 1090, 1091, 1141, 1140
1092, 1091, 1092, 1142, 1141
1093, 1092, 1093, 1143, 1142
1094, 1093, 1094, 1144, 1143
1095, 1094, 1095, 1145, 1144
1096, 1095, 1096, 1146, 1145
1097, 1096, 1097, 1147, 1146
1098, 1097, 1098, 1148, 1147
1099, 1098, 1099, 1149, 1148
1100, 1099, 1100, 1150, 1149
1101, 1150, 1101, 1151, 1200
1102, 1101, 1102, 1152, 1151
1103, 1102, 1103, 1153, 1152
1104, 1103, 1104, 1154, 1153
1105, 1104, 1105, 1155, 1154
1106, 1105, 1106, 1156, 1155
1107, 1106, 1107, 1157, 1156
1108, 1107, 1108, 1158, 1157
1109, 1108, 1109, 1159, 1158
1110, 1109, 1110, 1160, 1159
1111, 1110, 1111, 1161, 1160
1112, 1111, 1112, 1162, 1161
1113, 1112, 1113, 1163, 1162
1114, 1113, 1114, 1164, 1163
1115, 1114, 1115, 1165, 1164
1116, 1115, 1116, 1166, 1165
1117, 1116, 1117, 1167, 1166
1118, 1117, 1118, 1168, 1167
1119, 1118, 1119, 1169, 1168
1120, 1119, 1120, 1170, 1169
1121, 1120, 1121, 1171, 1170
1122, 1121, 1122, 1172, 1171
1123, 1122, 1123, 1173, 1172
1124, 1123, 1124, 1174, 1173
1125, 1124, 1125, 1175, 1174
1126, 1125, 1126, 1176, 1175
1127, 1126, 1127, 1177, 1176
1128, 1127, 1128, 1178, 1177
1129, 1128, 1129, 1179, 1178
1130, 1129, 1130, 1180, 1179
1131, 1130, 1131, 1181, 1180
1132, 1131, 1132, 1182, 1181
1133, 1132, 1133, 1183, 1182
1134, 1133, 1134, 1184, 1183
1135, 1134, 1135, 1185, 1184
1136, 1135, 1136, 1186, 1185
1137, 1136, 1137, 1187, 1186
1138, 1137, 1138, 1188, 1187
1139, 1138, 1139, 1189, 1188
1140, 1139, 1140, 1190, 1189
1141, 1140, 1141, 1191, 1190
1142, 1141, 1142, 1192, 1191
1143, 1142, 1143, 1193, 1192
1144, 1143, 1144, 1194, 1193
1145, 1144, 1145, 1195, 1194
1146, 1145, 1146, 1196, 1195
1147, 1146, 1147, 1197, 1196
1148, 1147, 1148, 1198, 1197
1149, 1148, 1149, 1199, 1198
1150, 1149, 1150, 1200, 1199
1151, 1200, 1151, 1201, 1250
1152, 1151, 1152, 1202, 1201
1153, 1152, 1153, 1203, 1202
1154, 1153, 1154, 1204, 1203
1155, 1154, 1155, 1205, 1204
1156, 1155, 1156, 1206, 1205
1157, 1156, 1157, 1207, 1206
1158, 1157, 1158, 1208, 1207
1159, 1158, 1159, 1209, 1208
1160, 1159, 1160, 1210, 1209
1161, 1160, 1161, 1211, 1210
1162, 1161, 1162, 1212, 1211
1163, 1162, 1163, 1213, 1212
1164, 1163, 1164, 1214, 1213
1165, 1164, 1165, 1215, 1214
1166, 1165, 1166, 1216, 1215
1167, 1166, 1167, 1217, 1216
1168, 1167, 1168, 1218, 1217
1169, 1168, 1169, 1219, 1218
1170, 1169, 1170, 1220, 1219
1171, 1170, 1171, 1221, 1220
1172, 1171, 1172, 1222, 1221
1173, 1172, 1173, 1223, 1222
1174, 1173, 1174, 1224, 1223
1175, 1174, 1175, 1225, 1224
1176, 1175, 1176, 1226, 1225
1177, 1176, 1177, 1227, 1226
1178, 1177, 1178, 1228, 1227
1179, 1178, 1179, 1229, 1228
1180, 1179, 1180, 1230, 1229
1181, 1180, 1181, 1231, 1230
1182, 1181, 1182, 1232, 1231
1183, 1182, 1183, 1233, 1232
1184, 1183, 1184, 1234, 1233
1185, 1184, 1185, 1235, 1234
1186, 1185, 1186, 1236, 1235
1187, 1186, 1187, 1237, 1236
1188, 1187, 1188, 1238, 1237
1189, 1188, 1189, 1239, 1238
1190, 1189, 1190, 1240, 1239
1191, 1190, 1191, 1241, 1240
1192, 1191, 1192, 1242, 1241
1193, 1192, 1193, 1243, 1242
1194, 1193, 1194, 1244, 1243
1195, 1194, 1195, 1245, 1244
1196, 1195, 1196, 1246, 1245
1197, 1196, 1197, 1247, 1246
1198, 1197, 1198, 1248, 1247
1199, 1198, 1199, 1249, 1248
1200, 1199, 1200, 1250, 1249
1201, 1250, 1201, 1251, 1300
1202, 1201, 1202, 1252, 1251
1203, 1202, 1203, 1253, 1252
1204, 1203, 1204, 1254, 1253
1205, 1204, 1205, 1255, 1254
1206, 1205, 1206, 1256, 1255
1207, 1206, 1207, 1257, 1256
1208, 1207, 1208, 1258, 1257
1209, 1208, 1209, 1259, 1258
1210, 1209, 1210, 1260, 1259
1211, 1210, 1211, 1261, 1260
1212, 1211, 1212, 1262, 1261
1213, 1212, 1213, 1263, 1262
1214, 1213, 1214, 1264, 1263
1215, 1214, 1215, 1265, 1264
1216, 1215, 1216, 1266, 1265
1217, 1216, 1217, 1267, 1266
1218, 1217, 1218, 1268, 1267
1219, 1218, 1219, 1269, 1268
1220, 1219, 1220, 1270, 1269
1221, 1220, 1221, 1271, 1270
1222, 1221, 1222, 1272, 1271
1223, 1222, 1223, 1273, 1272
1224, 1223, 1224, 1274, 1273
1225, 1224, 1225, 1275, 1274
1226, 1225, 1226, 1276, 1275
1227, 1226, 1227, 1277, 1276
1228, 1227, 1228, 1278, 1277
1229, 1228, 1229, 1279, 1278
1230, 1229, 1230, 1280, 1279
1231, 1230, 1231, 1281, 1280
1232, 1231, 1232, 1282, 1281
1233, 1232, 1233, 1283, 1282
1234, 1233, 1234, 1284, 1283
1235, 1234, 1235, 1285, 1284
1236, 1235, 1236, 1286, 1285
1237, 1236, 1237, 1287, 1286
1238, 1237, 1238, 1288, 1287
1239, 1238, 1239, 1289, 1288
1240, 1239, 1240, 1290, 1289
1241, 1240, 1241, 1291, 1290
1242, 1241, 1242, 1292, 1291
1243, 1242, 1243, 1293, 1292
1244, 1243, 1244, 1294, 1293
1245, 1244, 1245, 1295, 1294
1246, 1245, 1246, 1296, 1295
1247, 1246, 1247, 1297, 1296
1248, 1247, 1248, 1298, 1297
1249, 1248, 1249, 1299, 1298
1250, 1249, 1250, 1300, 1299
1251, 1300, 1251, 1301, 1350
1252, 1251, 1252, 1302, 1301
1253, 1252, 1253, 1303, 1302
1254, 1253, 1254, 1304, 1303
1255, 1254, 1255, 1305, 1304
1256, 1255, 1256, 1306, 1305
1257, 1256, 1257, 1307, 1306
1258, 1257, 1258, 1308, 1307
1259, 1258, 1259, 1309, 1308
1260, 1259, 1260, 1310, 1309
1261, 1260, 1261, 1311, 1310
1262, 1261, 1262, 1312, 1311
1263, 1262, 1263, 1313, 1312
1264, 1263, 1264, 1314, 1313
1265, 1264, 1265, 1315, 1314
1266, 1265, 1266, 1316, 1315
1267, 1266, 1267, 1317, 1316
1268, 1267, 1268, 1318, 1317
1269, 1268, 1269, 1319, 1318
1270, 1269, 1270, 1320, 1319
1271, 1270, 1271, 1321, 1320
1272, 1271, 1272, 1322, 1321
1273, 1272, 1273, 1323, 1322
1274, 1273, 1274, 1324, 1323
1275, 1274, 1275, 1325, 1324
1276, 1275, 1276, 1326, 1325
1277, 1276, 1277, 1327, 1326
1278, 1277, 1278, 1328, 1327
1279, 1278, 1279, 1329, 1328
1280, 1279, 1280, 1330, 1329
1281, 1280, 1281, 1331, 1330
1282, 1281, 1282, 1332, 1331
1283, 1282, 1283, 1333, 1332
1284, 1283, 1284, 1334, 1333
1285, 1284, 1285, 1335, 1334
1286, 1285, 1286, 1336, 1335
1287, 1286, 1287, 1337, 1336
1288, 1287, 1288, 1338, 1337
1289, 1288, 1289, 1339, 1338
1290, 1289, 1290, 1340, 1339
1291, 1290, 1291, 1341, 1340
1292, 1291, 1292, 1342, 1341
1293, 1292, 1293, 1343, 1342
1294, 1293, 1294, 1344, 1343
1295, 1294, 1295, 1345, 1344
1296, 1295, 1296, 1346, 1345
1297, 1296, 1297, 1347, 1346
1298, 1297, 1298, 1348, 1347
1299, 1298, 1299, 1349, 1348
1300, 1299, 1300, 1350, 1349
1301, 1350, 1301, 1351, 1400
1302, 1301, 1302, 1352, 1351
1303, 1302, 1303, 1353, 1352
1304, 1303, 1304, 1354, 1353
1305, 1304, 1305, 1355, 1354
1306, 1305, 1306, 1356, 1355
1307, 1306, 1307, 1357, 1356
1308, 1307, 1308, 1358, 1357
1309, 1308, 1309, 1359, 1358
1310, 1309, 1310, 1360, 1359
1311, 1310, 1311, 1361, 1360
1312, 1311, 1312, 1362, 1361
1313, 1312, 1313, 1363, 1362
1314, 1313, 1314, 1364, 1363
1315, 1314, 1315, 1365, 1364
1316, 1315, 1316, 1366, 1365
1317, 1316, 1317, 1367, 1366
1318, 1317, 1318, 1368, 1367
1319, 1318, 1319, 1369, 1368
1320, 1319, 1320, 1370, 1369
1321, 1320, 1321, 1371, 1370
1322, 1321, 1322, 1372, 1371
1323, 1322, 1323, 1373, 1372
1324, 1323, 1324, 1374, 1373
1325, 1324, 1325, 1375, 1374
1326, 1325, 1326, 1376, 1375
1327, 1326, 1327, 1377, 1376
1328, 1327, 1328, 1378, 1377
1329, 1328, 1329, 1379, 1378
1330, 1329, 1330, 1380, 1379
1331, 1330, 1331, 1381, 1380
1332, 1331, 1332, 1382, 1381
1333, 1332, 1333, 1383, 1382
1334, 1333, 1334, 1384, 1383
1335, 1334, 1335, 1385, 1384
1336, 1335, 1336, 1386, 1385
1337, 1336, 1337, 1387, 1386
1338, 1337, 1338, 1388, 1387
1339, 1338, 1339, 1389, 1388
1340, 1339, 1340, 1390, 1389
1341, 1340, 1341, 1391, 1390
1342, 1341, 1342, 1392, 1391
1343, 1342, 1343, 1393, 1392
1344, 1343, 1344, 1394, 1393
1345, 1344, 1345, 1395, 1394
1346, 1345, 1346, 1396, 1395
1347, 1346, 1347, 1397, 1396
1348, 1347, 1348, 1398, 1397
1349, 1348, 1349, 1399, 1398
1350, 1349, 1350, 1400, 1399
1351, 1400, 1351, 1401, 1450
1352, 1351, 1352, 1402, 1401
1353, 1352, 1353, 1403, 1402
1354, 1353, 1354, 1404, 1403
1355, 1354, 1355, 1405, 1404
1356, 1355, 1356, 1406, 1405
1357, 1356, 1357, 1407, 1406
1358, 1357, 1358, 1408, 1407
1359, 1358, 1359, 1409, 1408
1360, 1359, 1360, 1410, 1409
1361, 1360, 1361, 1411, 1410
1362, 1361, 1362, 1412, 1411
1363, 1362, 1363, 1413, 1412
1364, 1363, 1364, 1414, 1413
1365, 1364, 1365, 1415, 1414
1366, 1365, 1366, 1416, 1415
1367, 1366, 1367, 1417, 1416
1368, 1367, 1368, 1418, 1417
1369, 1368, 1369, 1419, 1418
1370, 1369, 1370, 1420, 1419
1371, 1370, 1371, 1421, 1420
1372, 1371, 1372, 1422, 1421
1373, 1372, 1373, 1423, 1422
1374, 1373, 1374, 1424, 1423
1375, 1374, 1375, 1425, 1424
1376, 1375, 1376, 1426, 1425
1377, 1376, 1377, 1427, 1426
1378, 1377, 1378, 1428, 1427
1379, 1378, 1379, 1429, 1428
1380, 1379, 1380, 1430, 1429
1381, 1380, 1381, 1431, 1430
1382, 1381, 1382, 1432, 1431
1383, 1382, 1383, 1433, 1432
1384, 1383, 1384, 1434, 1433
1385, 1384, 1385, 1435, 1434
1386, 1385, 1386, 1436, 1435
1387, 1386, 1387, 1437, 1436
1388, 1387, 1388, 1438, 1437
1389, 1388, 1389, 1439, 1438
1390, 1389, 1390, 1440, 1439
1391, 1390, 1391, 1441, 1440
1392, 1391, 1392, 1442, 1441
1393, 1392, 1393, 1443, 1442
1394, 1393, 1394, 1444, 1443
1395, 1394, 1395, 1445, 1444
1396, 1395, 1396, 1446, 1445
1397, 1396, 1397, 1447, 1446
1398, 1397, 1398, 1448, 1447
1399, 1398, 1399, 1449, 1448
1400, 1399, 1400, 1450, 1449
1401, 1450, 1401, 1451, 1500
1402, 1401, 1402, 1452, 1451
1403, 1402, 1403, 1453, 1452
1404, 1403, 1404, 1454, 1453
1405, 1404, 1405, 1455, 1454
1406, 1405, 1406, 1456, 1455
1407, 1406, 1407, 1457, 1456
1408, 1407, 1408, 1458, 1457
1409, 1408, 1409, 1459, 1458
1410, 1409, 1410, 1460, 1459
1411, 1410, 1411, 1461, 1460
1412, 1411, 1412, 1462, 1461
1413, 1412, 1413, 1463, 1462
1414, 1413, 1414, 1464, 1463
1415, 1414, 1415, 1465, 1464
1416, 1415, 1416, 1466, 1465
1417, 1416, 1417, 1467, 1466
1418, 1417, 1418, 1468, 1467
1419, 1418, 1419, 1469, 1468
1420, 1419, 1420, 1470, 1469
1421, 1420, 1421, 1471, 1470
1422, 1421, 1422, 1472, 1471
1423, 1422, 1423, 1473, 1472
1424, 1423, 1424, 1474, 1473
1425, 1424, 1425, 1475, 1474
1426, 1425, 1426, 1476, 1475
1427, 1426, 1427, 1477, 1476
1428, 1427, 1428, 1478, 1477
1429, 1428, 1429, 1479, 1478
1430, 1429, 1430, 1480, 1479
1431, 1430, 1431, 1481, 1480
1432, 1431, 1432, 1482, 1481
1433, 1432, 1433, 1483, 1482
1434, 1433, 1434, 1484, 1483
1435, 1434, 1435, 1485, 1484
1436, 1435, 1436, 1486, 1485
1437, 1436, 1437, 1487, 1486
1438, 1437, 1438, 1488, 1487
1439, 1438, 1439, 1489, 1488
1440, 1439, 1440, 1490, 1489
1441, 1440, 1441, 1491, 1490
1442, 1441, 1442, 1492, 1491
1443, 1442, 1443, 1493, 1492
1444, 1443, 1444, 1494, 1493
1445, 1444, 1445, 1495, 1494
1446, 1445, 1446, 1496, 1495
1447, 1446, 1447, 1497, 1496
1448, 1447, 1448, 1498, 1497
1449, 1448, 1449, 1499, 1498
1450, 1449, 1450, 1500, 1499
1451, 1500, 1451, 1501, 1550
1452, 1451, 1452, 1502, 1501
1453, 1452, 1453, 1503, 1502
1454, 1453, 1454, 1504, 1503
1455, 1454, 1455, 1505, 1504
1456, 1455, 1456, 1506, 1505
1457, 1456, 1457, 1507, 1506
1458, 1457, 1458, 1508, 1507
1459, 1458, 1459, 1509, 1508
1460, 1459, 1460, 1510, 1509
1461, 1460, 1461, 1511, 1510
1462, 1461, 1462, 1512, 1511
1463, 1462, 1463, 1513, 1512
1464, 1463, 1464, 1514, 1513
1465, 1464, 1465, 1515, 1514
1466, 1465, 1466, 1516, 1515
1467, 1466, 1467, 1517, 1516
1468, 1467, 1468, 1518, 1517
1469, 1468, 1469, 1519, 1518
1470, 1469, 1470, 1520, 1519
1471, 1470, 1471, 1521, 1520
1472, 1471, 1472, 1522, 1521
1473, 1472, 1473, 1523, 1522
1474, 1473, 1474, 1524, 1523
1475, 1474, 1475, 1525, 1524
1476, 1475, 1476, 1526, 1525
1477, 1476, 1477, 1527, 1526
1478, 1477, 1478, 1528, 1527
1479, 1478, 1479, 1529, 1528
1480, 1479, 1480, 1530, 1529
1481, 1480, 1481, 1531, 1530
1482, 1481, 1482, 1532, 1531
1483, 1482, 1483, 1533, 1532
1484, 1483, 1484, 1534, 1533
1485, 1484, 1485, 1535, 1534
1486, 1485, 1486, 1536, 1535
1487, 1486, 1487, 1537, 1536
1488, 1487, 1488, 1538, 1537
1489, 1488, 1489, 1539, 1538
1490, 1489, 1490, 1540, 1539
1491, 1490, 1491, 1541, 1540
1492, 1491, 1492, 1542, 1541
1493, 1492, 1493, 1543, 1542
1494, 1493, 1494, 1544, 1543
1495, 1494, 1495, 1545, 1544
1496, 1495, 1496, 1546, 1545
1497, 1496, 1497, 1547, 1546
1498, 1497, 1498, 1548, 1547
1499, 1498, 1499, 1549, 1548
1500, 1499, 1500, 1550, 1549
*Orientation, name=Ori-1
1., 0., 0., 0., 1., 0.
1, 0.
** Region: (CompositeLayup-1-1: Generated From Layup)
*Elset, elset=CompositeLayup-1-1, generate
    1,  1500,     1
** Section: CompositeLayup-1-1
*Shell Section, elset=CompositeLayup-1-1, composite, orientation=Ori-1, density=0., layup=CompositeLayup-1
0.472375, 3, Composite, 90., Ply-1
0.472375, 3, Composite, 90., Ply-2
0.472375, 3, Composite, 90., Ply-3
0.472375, 3, Composite, 90., Ply-4
0.472375, 3, Composite, 66.613, Ply-5
0.472375, 3, Composite, -66.613, Ply-6
0.472375, 3, Composite, 68.653, Ply-7
0.472375, 3, Composite, -68.653, Ply-8
0.472375, 3, Composite, 66.613, Ply-9
0.472375, 3, Composite, -66.613, Ply-10
0.472375, 3, Composite, 68.653, Ply-11
0.472375, 3, Composite, -68.653, Ply-12
0.472375, 3, Composite, 66.613, Ply-13
0.472375, 3, Composite, -66.613, Ply-14
0.472375, 3, Composite, 68.653, Ply-15
0.472375, 3, Composite, -68.653, Ply-16
0.472375, 3, Composite, 66.613, Ply-17
0.472375, 3, Composite, -66.613, Ply-18
0.472375, 3, Composite, 68.653, Ply-19
0.472375, 3, Composite, -68.653, Ply-20
0.472375, 3, Composite, 66.613, Ply-21
0.472375, 3, Composite, -66.613, Ply-22
0.472375, 3, Composite, 68.653, Ply-23
0.472375, 3, Composite, -68.653, Ply-24
0.472375, 3, Composite, 66.613, Ply-25
0.472375, 3, Composite, -66.613, Ply-26
0.472375, 3, Composite, 68.653, Ply-27
0.472375, 3, Composite, -68.653, Ply-28
0.472375, 3, Composite, 66.613, Ply-29
0.472375, 3, Composite, -66.613, Ply-30
0.472375, 3, Composite, 68.653, Ply-31
0.472375, 3, Composite, -68.653, Ply-32
0.472375, 3, Composite, 66.613, Ply-33
0.472375, 3, Composite, -66.613, Ply-34
0.472375, 3, Composite, 68.653, Ply-35
0.472375, 3, Composite, -68.653, Ply-36
0.472375, 3, Composite, 90., Ply-37
0.472375, 3, Composite, 90., Ply-38
0.472375, 3, Composite, 90., Ply-39
0.472375, 3, Composite, 90., Ply-40
*End Part
**
**
** ASSEMBLY
**
*Assembly, name=Assembly
**
*Instance, name=CompositeHull-1, part=CompositeHull
*End Instance
**
*Nset, nset=_PickedSet5, internal, instance=CompositeHull-1, generate
  1,  50,   1
*Elset, elset=_PickedSet5, internal, instance=CompositeHull-1, generate
  1,  50,   1
*Nset, nset=_PickedSet6, internal, instance=CompositeHull-1, generate
 1501,  1550,     1
*Elset, elset=_PickedSet6, internal, instance=CompositeHull-1, generate
 1451,  1500,     1
*Elset, elset=__PickedSurf7_SPOS, internal, instance=CompositeHull-1, generate
    1,  1500,     1
*Surface, type=ELEMENT, name=_PickedSurf7, internal
__PickedSurf7_SPOS, SPOS
*End Assembly
**
** MATERIALS
**
*Material, name=Composite
*Density
 1.55e-09,
*Elastic, type=LAMINA
102000.,7000., 0.16,3350.,3350.,2680.
*Fail Stress
1400.,1050.,  28., 105.,  75.,   0.,   0.
**
** BOUNDARY CONDITIONS
**
** Name: BC-End-0 Type: �Գ�/���Գ�/��ȫ�̶�
*Boundary
_PickedSet5, ENCASTRE
** Name: BC-End-1 Type: �Գ�/���Գ�/��ȫ�̶�
*Boundary
_PickedSet6, ENCASTRE
** ----------------------------------------------------------------
**
** STEP: Step-1
**
*Imperfection, file=C3, step=1
1, 0.414689395
*Step, name=Step-1, nlgeom=YES, inc=220
*Static, riks
0.01, 1., 1e-10, 0.1, ,
**
** LOADS
**
** Name: ExternalPressure   Type: Pressure
*Dsload
_PickedSurf7, P, 50.
**
** OUTPUT REQUESTS
**
*Restart, write, frequency=0
**
** FIELD OUTPUT: F-Output-1
**
*Output, field, variable=PRESELECT
**
** HISTORY OUTPUT: H-Output-1
**
*Output, history, variable=PRESELECT
*End Step
